 vasp.5.4.4.18Apr17-6-g9f103f2a35 (build Dec 27 2023 19:01:44) complex

 executed on             LinuxIFC date 2020.08.23  19:18:08

 INCAR:
 POTCAR:    PAW_PBE Ga 08Apr2002
 POTCAR:    PAW_PBE Bi_d 06Sep2000
 POTCAR:    PAW_PBE As 22Sep2009
 POTCAR:    PAW_PBE Ga 08Apr2002
   VRHFIN =Ga: s2p1

   TITEL  = PAW_PBE Ga 08Apr2002
   POMASS =   69.723; ZVAL   =    3.000    mass and valenz
   ENMAX  =  134.678; ENMIN  =  101.009 eV

 POTCAR:    PAW_PBE Bi_d 06Sep2000
   VRHFIN =Bi:

   TITEL  = PAW_PBE Bi_d 06Sep2000
   POMASS =  208.980; ZVAL   =   15.000    mass and valenz
   ENMAX  =  242.839; ENMIN  =  182.129 eV

 POTCAR:    PAW_PBE As 22Sep2009
   VRHFIN =As: s2p3

   TITEL  = PAW_PBE As 22Sep2009
   POMASS =   74.922; ZVAL   =    5.000    mass and valenz
   ENMAX  =  208.702; ENMIN  =  156.526 eV

 Optimization of the real space projectors (new method)

 maximal supplied QI-value         = 14.36
 optimisation between [QCUT,QGAM] = [ 11.35, 22.84] = [ 36.05,146.02] Ry
 Optimized for a Real-space Cutoff    1.43 Angstroem

   l    n(q)    QCUT    max X(q) W(low)/X(q) W(high)/X(q)  e(spline)
   0     10    11.346    81.156    0.45E-04    0.70E-04    0.62E-07
   0     10    11.346    65.205    0.45E-04    0.72E-04    0.63E-07
   1      9    11.346    44.874    0.15E-03    0.63E-04    0.19E-06
   1      9    11.346    25.010    0.16E-03    0.59E-04    0.19E-06
   2      9    11.346     5.217    0.61E-04    0.14E-03    0.62E-07
 Optimization of the real space projectors (new method)

[...]

   l    n(q)    QCUT    max X(q) W(low)/X(q) W(high)/X(q)  e(spline)
   2      9    11.338     4.360    0.29E-04    0.91E-04    0.84E-07
   2      9    11.338     7.451    0.91E-04    0.83E-04    0.19E-06
   0      9    11.338    21.015    0.59E-04    0.59E-05    0.80E-07
   0      9    11.338     9.183    0.87E-04    0.88E-05    0.12E-06
   1      9    11.338    25.904    0.84E-04    0.19E-03    0.11E-06
   1      9    11.338    13.553    0.73E-04    0.17E-03    0.10E-06
 Optimization of the real space projectors (new method)

 maximal supplied QI-value         = 17.95
 optimisation between [QCUT,QGAM] = [ 11.31, 22.80] = [ 35.82,145.56] Ry
 Optimized for a Real-space Cutoff    1.31 Angstroem

   l    n(q)    QCUT    max X(q) W(low)/X(q) W(high)/X(q)  e(spline)
   0      9    11.310   117.213    0.44E-04    0.60E-04    0.75E-07
   0      9    11.310    98.411    0.42E-04    0.60E-04    0.74E-07
   1      8    11.310    10.093    0.11E-03    0.13E-03    0.10E-06
   1      8    11.310     5.228    0.97E-04    0.12E-03    0.93E-07
   2      8    11.310     4.067    0.36E-04    0.60E-04    0.60E-07
  PAW_PBE Ga 08Apr2002                  :
  PAW_PBE Bi_d 06Sep2000                :
  PAW_PBE As 22Sep2009                  :

 POSCAR: Ga2 Bi1 As1
  positions in direct lattice
 exchange correlation table for  LEXCH =        8
   RHO(1)=    0.500       N(1)  =     2000
   RHO(2)=  100.500       N(2)  =     4000

 ion  position               nearest neighbor table
   1  0.500  0.000  0.726-   4 2.56   4 2.56   3 2.73   3 2.73
   2  0.000  0.500  0.274-   4 2.56   4 2.56   3 2.73   3 2.73
   3  0.000  0.000  0.000-   1 2.73   1 2.73   2 2.73   2 2.73
   4  0.500  0.500  0.500-   2 2.56   2 2.56   1 2.56   1 2.56

  LATTYP: Found a simple tetragonal cell.
 ALAT       =     4.3001408577
 C/A-ratio  =     1.4292232167

  Lattice vectors:

 A1 = (   4.3001408577,   0.0000000000,   0.0000000000)
 A2 = (   0.0000000000,   4.3001408577,   0.0000000000)
 A3 = (   0.0000000000,   0.0000000000,   6.1458611488)

Analysis of symmetry for initial positions (statically):
 Subroutine PRICEL returns:
 Original cell was already a primitive cell.

 Routine SETGRP: Setting up the symmetry group for a
 simple tetragonal supercell.

 Subroutine GETGRP returns: Found  8 space group operations
 (whereof  8 operations were pure point group operations)
 out of a pool of 16 trial point group operations.

The static configuration has the point symmetry D_2d.

Analysis of symmetry for dynamics (positions and initial velocities):
 Subroutine PRICEL returns:
 Original cell was already a primitive cell.

[...]

The dynamic configuration has the point symmetry D_2d.

Analysis of structural, dynamic, and magnetic symmetry:
 Subroutine PRICEL returns:
 Original cell was already a primitive cell.

 Routine SETGRP: Setting up the symmetry group for a
 simple tetragonal supercell.

 Subroutine GETGRP returns: Found  1 space group operations
 (whereof  1 operations were pure point group operations)
 out of a pool of 16 trial point group operations.

The (compounded) configuration has the point symmetry C_1 .

 Subroutine INISYM returns: Found  1 space group operations
 (whereof  1 operations are pure point group operations),
 and found     1 'primitive' translations

 KPOINTS: Automatically generated mesh
  k-points in reciprocal lattice
Space group operators:
 irot       det(A)        alpha          n_x          n_y          n_z        tau_x        tau_y        tau_z
    1     1.000000     0.000001     1.000000     0.000000     0.000000     0.000000     0.000000     0.000000

 Subroutine IBZKPT_HF returns following result:

 Found    147 k-points in 1st BZ
 the following    147 k-points will be used (e.g. in the exchange kernel)
 Following reciprocal coordinates:   # in IRBZ
  0.000000  0.000000  0.000000    0.01333333   1 t-inv F
  0.200000  0.000000  0.000000    0.01333333   2 t-inv F
  0.400000  0.000000  0.000000    0.01333333   3 t-inv F
 -0.400000  0.000000  0.000000    0.01333333   4 t-inv F
 -0.200000  0.000000  0.000000    0.01333333   5 t-inv F
  0.000000  0.200000  0.000000    0.01333333   6 t-inv F
  0.200000  0.200000  0.000000    0.01333333   7 t-inv F
  0.400000  0.200000  0.000000    0.01333333   8 t-inv F
 -0.400000  0.200000  0.000000    0.01333333   9 t-inv F
 -0.200000  0.200000  0.000000    0.01333333  10 t-inv F
  0.000000  0.400000  0.000000    0.01333333  11 t-inv F
  0.200000  0.400000  0.000000    0.01333333  12 t-inv F
  0.400000  0.400000  0.000000    0.01333333  13 t-inv F
 -0.400000  0.400000  0.000000    0.01333333  14 t-inv F
 -0.200000  0.400000  0.000000    0.01333333  15 t-inv F
  0.000000 -0.400000  0.000000    0.01333333  16 t-inv F
  0.200000 -0.400000  0.000000    0.01333333  17 t-inv F
  0.400000 -0.400000  0.000000    0.01333333  18 t-inv F
 -0.400000 -0.400000  0.000000    0.01333333  19 t-inv F
 -0.200000 -0.400000  0.000000    0.01333333  20 t-inv F
  0.000000 -0.200000  0.000000    0.01333333  21 t-inv F
  0.200000 -0.200000  0.000000    0.01333333  22 t-inv F
  0.400000 -0.200000  0.000000    0.01333333  23 t-inv F
 -0.400000 -0.200000  0.000000    0.01333333  24 t-inv F
 -0.200000 -0.200000  0.000000    0.01333333  25 t-inv F
  0.000000  0.000000  0.333333    0.01333333  26 t-inv F
  0.200000  0.000000  0.333333    0.01333333  27 t-inv F
  0.400000  0.000000  0.333333    0.01333333  28 t-inv F
 -0.400000  0.000000  0.333333    0.01333333  29 t-inv F
 -0.200000  0.000000  0.333333    0.01333333  30 t-inv F
  0.000000  0.200000  0.333333    0.01333333  31 t-inv F
  0.200000  0.200000  0.333333    0.01333333  32 t-inv F
  0.400000  0.200000  0.333333    0.01333333  33 t-inv F
 -0.400000  0.200000  0.333333    0.01333333  34 t-inv F
 -0.200000  0.200000  0.333333    0.01333333  35 t-inv F
  0.000000  0.400000  0.333333    0.01333333  36 t-inv F
  0.200000  0.400000  0.333333    0.01333333  37 t-inv F
  0.400000  0.400000  0.333333    0.01333333  38 t-inv F
 -0.400000  0.400000  0.333333    0.01333333  39 t-inv F
 -0.200000  0.400000  0.333333    0.01333333  40 t-inv F
  0.000000 -0.400000  0.333333    0.01333333  41 t-inv F
  0.200000 -0.400000  0.333333    0.01333333  42 t-inv F
  0.400000 -0.400000  0.333333    0.01333333  43 t-inv F
 -0.400000 -0.400000  0.333333    0.01333333  44 t-inv F
 -0.200000 -0.400000  0.333333    0.01333333  45 t-inv F
  0.000000 -0.200000  0.333333    0.01333333  46 t-inv F
  0.200000 -0.200000  0.333333    0.01333333  47 t-inv F
  0.400000 -0.200000  0.333333    0.01333333  48 t-inv F
 -0.400000 -0.200000  0.333333    0.01333333  49 t-inv F
 -0.200000 -0.200000  0.333333    0.01333333  50 t-inv F
  0.000000  0.000000 -0.333333    0.01333333  51 t-inv F
  0.200000  0.000000 -0.333333    0.01333333  52 t-inv F
  0.400000  0.000000 -0.333333    0.01333333  53 t-inv F
 -0.400000  0.000000 -0.333333    0.01333333  54 t-inv F
 -0.200000  0.000000 -0.333333    0.01333333  55 t-inv F
  0.000000  0.200000 -0.333333    0.01333333  56 t-inv F
  0.200000  0.200000 -0.333333    0.01333333  57 t-inv F
  0.400000  0.200000 -0.333333    0.01333333  58 t-inv F
 -0.400000  0.200000 -0.333333    0.01333333  59 t-inv F
 -0.200000  0.200000 -0.333333    0.01333333  60 t-inv F
[...]
  0.000000  0.000000  0.300000    0.00000000 133 t-inv F
  0.000000  0.000000  0.314286    0.00000000 134 t-inv F
  0.000000  0.000000  0.328571    0.00000000 135 t-inv F
  0.000000  0.000000  0.342857    0.00000000 136 t-inv F
  0.000000  0.000000  0.357143    0.00000000 137 t-inv F
  0.000000  0.000000  0.371429    0.00000000 138 t-inv F
  0.000000  0.000000  0.385714    0.00000000 139 t-inv F
  0.000000  0.000000  0.400000    0.00000000 140 t-inv F
  0.000000  0.000000  0.414286    0.00000000 141 t-inv F
  0.000000  0.000000  0.428571    0.00000000 142 t-inv F
  0.000000  0.000000  0.442857    0.00000000 143 t-inv F
  0.000000  0.000000  0.457143    0.00000000 144 t-inv F
  0.000000  0.000000  0.471429    0.00000000 145 t-inv F
  0.000000  0.000000  0.485714    0.00000000 146 t-inv F
  0.000000  0.000000  0.500000    0.00000000 147 t-inv F

 SYSTEM =  Ga2BiAs
 POSCAR =  Ga2 Bi1 As1

 Startparameter for this run:
   NWRITE =      2    write-flag & timer
   PREC   = accura    normal or accurate (medium, high low for compatibility)
   ISTART =      1    job   : 0-new  1-cont  2-samecut
   ICHARG =      2    charge: 1-file 2-atom 10-const
   ISPIN  =      1    spin polarized calculation?
   LNONCOLLINEAR =      T non collinear calculations
   LSORBIT =      T    spin-orbit coupling
   INIWAV =      1    electr: 0-lowe 1-rand  2-diag
   LASPH  =      F    aspherical Exc in radial PAW
   METAGGA=      F    non-selfconsistent MetaGGA calc.

 Electronic Relaxation 1
   ENCUT  =  500.0 eV  36.75 Ry    6.06 a.u.   7.84  7.84 11.21*2*pi/ulx,y,z
   ENINI  =  500.0     initial cutoff
   ENAUG  =  462.8 eV  augmentation charge cutoff
   NELM   =     60;   NELMIN=  2; NELMDL=  0     # of ELM steps
   EDIFF  = 0.1E-04   stopping-criterion for ELM
   LREAL  =      T    real-space projection
   NLSPLINE    = F    spline interpolate recip. space projectors
   LCOMPAT=      F    compatible to vasp.4.4
   GGA_COMPAT  = T    GGA compatible to vasp.4.4-vasp.4.6
   LMAXPAW     = -100 max onsite density
   LMAXMIX     =    2 max onsite mixed and CHGCAR
   VOSKOWN=      0    Vosko Wilk Nusair interpolation
   ROPT   =   -0.00025  -0.00025  -0.00025
 Ionic relaxation
   EDIFFG = -.1E-01   stopping-criterion for IOM
   NSW    =      0    number of steps for IOM
   NBLOCK =      1;   KBLOCK =      1    inner block; outer block
   IBRION =     -1    ionic relax: 0-MD 1-quasi-New 2-CG
[...]
 k-point 45 :  -0.2000-0.4000 0.3333  plane waves:    5788
 k-point 46 :   0.0000-0.2000 0.3333  plane waves:    5764
 k-point 47 :   0.2000-0.2000 0.3333  plane waves:    5744
 k-point 48 :   0.4000-0.2000 0.3333  plane waves:    5788
 k-point 49 :  -0.4000-0.2000 0.3333  plane waves:    5788
 k-point 50 :  -0.2000-0.2000 0.3333  plane waves:    5744
 k-point 51 :   0.0000 0.0000-0.3333  plane waves:    5748
 k-point 52 :   0.2000 0.0000-0.3333  plane waves:    5764
 k-point 53 :   0.4000 0.0000-0.3333  plane waves:    5764
 k-point 54 :  -0.4000 0.0000-0.3333  plane waves:    5764
 k-point 55 :  -0.2000 0.0000-0.3333  plane waves:    5764
 k-point 56 :   0.0000 0.2000-0.3333  plane waves:    5764
 k-point 57 :   0.2000 0.2000-0.3333  plane waves:    5744
 k-point 58 :   0.4000 0.2000-0.3333  plane waves:    5788
 k-point 59 :  -0.4000 0.2000-0.3333  plane waves:    5788
 k-point 60 :  -0.2000 0.2000-0.3333  plane waves:    5744
[...]
 k-point 85 :   0.3714 0.3714 0.0000  plane waves:    5750
 k-point 86 :   0.3571 0.3571 0.0000  plane waves:    5750
 k-point 87 :   0.3429 0.3429 0.0000  plane waves:    5766
 k-point 88 :   0.3286 0.3286 0.0000  plane waves:    5770
 k-point 89 :   0.3143 0.3143 0.0000  plane waves:    5774
 k-point 90 :   0.3000 0.3000 0.0000  plane waves:    5770
 k-point 91 :   0.2857 0.2857 0.0000  plane waves:    5778
 k-point 92 :   0.2714 0.2714 0.0000  plane waves:    5778
 k-point 93 :   0.2571 0.2571 0.0000  plane waves:    5774
 k-point 94 :   0.2429 0.2429 0.0000  plane waves:    5766
 k-point 95 :   0.2286 0.2286 0.0000  plane waves:    5766
 k-point 96 :   0.2143 0.2143 0.0000  plane waves:    5766
 k-point 97 :   0.2000 0.2000 0.0000  plane waves:    5754
 k-point 98 :   0.1857 0.1857 0.0000  plane waves:    5742
 k-point 99 :   0.1714 0.1714 0.0000  plane waves:    5754
 k-point ** :   0.1571 0.1571 0.0000  plane waves:    5742
 k-point ** :   0.1429 0.1429 0.0000  plane waves:    5766
 k-point ** :   0.1286 0.1286 0.0000  plane waves:    5758
 k-point ** :   0.1143 0.1143 0.0000  plane waves:    5754
 k-point ** :   0.1000 0.1000 0.0000  plane waves:    5754
 k-point ** :   0.0857 0.0857 0.0000  plane waves:    5754
 k-point ** :   0.0714 0.0714 0.0000  plane waves:    5778
 k-point ** :   0.0571 0.0571 0.0000  plane waves:    5762
 k-point ** :   0.0429 0.0429 0.0000  plane waves:    5750
 k-point ** :   0.0286 0.0286 0.0000  plane waves:    5762
 k-point ** :   0.0143 0.0143 0.0000  plane waves:    5774
 k-point ** :   0.0000 0.0000 0.0000  plane waves:    5758
 k-point ** :   0.0000 0.0000 0.0000  plane waves:    5758
 k-point ** :   0.0000 0.0000 0.0143  plane waves:    5758
 k-point ** :   0.0000 0.0000 0.0286  plane waves:    5766
 k-point ** :   0.0000 0.0000 0.0429  plane waves:    5766
 k-point ** :   0.0000 0.0000 0.0571  plane waves:    5774
 k-point ** :   0.0000 0.0000 0.0714  plane waves:    5758
 k-point ** :   0.0000 0.0000 0.0857  plane waves:    5758
 k-point ** :   0.0000 0.0000 0.1000  plane waves:    5758
 k-point ** :   0.0000 0.0000 0.1143  plane waves:    5750
 k-point ** :   0.0000 0.0000 0.1286  plane waves:    5750
 k-point ** :   0.0000 0.0000 0.1429  plane waves:    5750
 k-point ** :   0.0000 0.0000 0.1571  plane waves:    5734
 k-point ** :   0.0000 0.0000 0.1714  plane waves:    5750
 k-point ** :   0.0000 0.0000 0.1857  plane waves:    5750
 k-point ** :   0.0000 0.0000 0.2000  plane waves:    5750
 k-point ** :   0.0000 0.0000 0.2143  plane waves:    5740
 k-point ** :   0.0000 0.0000 0.2286  plane waves:    5740
 k-point ** :   0.0000 0.0000 0.2429  plane waves:    5748
 k-point ** :   0.0000 0.0000 0.2571  plane waves:    5732
 k-point ** :   0.0000 0.0000 0.2714  plane waves:    5748
 k-point ** :   0.0000 0.0000 0.2857  plane waves:    5748
 k-point ** :   0.0000 0.0000 0.3000  plane waves:    5748
 k-point ** :   0.0000 0.0000 0.3143  plane waves:    5748
 k-point ** :   0.0000 0.0000 0.3286  plane waves:    5748
 k-point ** :   0.0000 0.0000 0.3429  plane waves:    5764
 k-point ** :   0.0000 0.0000 0.3571  plane waves:    5756
 k-point ** :   0.0000 0.0000 0.3714  plane waves:    5788
 k-point ** :   0.0000 0.0000 0.3857  plane waves:    5804
 k-point ** :   0.0000 0.0000 0.4000  plane waves:    5788
 k-point ** :   0.0000 0.0000 0.4143  plane waves:    5788
 k-point ** :   0.0000 0.0000 0.4286  plane waves:    5780
 k-point ** :   0.0000 0.0000 0.4429  plane waves:    5780
 k-point ** :   0.0000 0.0000 0.4571  plane waves:    5772
 k-point ** :   0.0000 0.0000 0.4714  plane waves:    5772
 k-point ** :   0.0000 0.0000 0.4857  plane waves:    5772
 k-point ** :   0.0000 0.0000 0.5000  plane waves:    5772

 maximum and minimum number of plane-waves per node :       408      330

 maximum number of plane-waves:      5804
 maximum index in each direction:
   IXMAX=    8   IYMAX=    8   IZMAX=   11
   IXMIN=   -8   IYMIN=   -8   IZMIN=  -11

 real space projection operators:
  max/ min on nodes  :        154.04        110.87

 parallel 3D FFT for wavefunctions:
    minimum data exchange during FFTs selected (reduces bandwidth)
 parallel 3D FFT for charge:
    minimum data exchange during FFTs selected (reduces bandwidth)

 FFT grid for exact exchange (Hartree Fock)
  NGX = 24; NGY = 24; NGZ = 36

 Radii for the augmentation spheres in the non-local exchange
 for species   1 augmentation radius   1.596 (default was   1.277)
       energy cutoff for augmentation   2000.0
 for species   2 augmentation radius   1.357 (default was   1.086)
       energy cutoff for augmentation   2000.0
 for species   3 augmentation radius   1.328 (default was   1.062)
       energy cutoff for augmentation   2000.0

 real space projection operators:
  max/ min on nodes  :        164.26         74.61

 Maximum index for augmentation-charges in exchange          305
  SETUP_FOCK is finished

 Broyden mixing: mesh for mixing (old mesh)
   NGX = 15   NGY = 15   NGZ = 23
  (NGX  = 64   NGY  = 64   NGZ  = 96)
  gives a total of   5175 points

 initial charge density was supplied:
 charge density of overlapping atoms calculated
 number of electron      26.0000000 magnetization       4.0000000      4.0000000      4.0000000
 charge density for first step will be calculated from the start-wavefunctions

 Maximum index for non-local projection operator          368
 Maximum index for augmentation-charges         1186 (set IRDMAX)

 initial charge from wavefunction
 First call to EWALD:  gamma=   0.366
 Maximum number of real-space cells 3x 3x 2
 Maximum number of reciprocal cells 2x 2x 3

--------------------------------------- Iteration      1(   1)  ---------------------------------------

 eigenvalue-minimisations  :     0
 total energy-change (2. order) :-0.1821707E+02  (-0.1390063E+00)
 number of electron      26.0000008 magnetization      -0.0000054     -0.0000054     -0.0000052
 augmentation part        4.0487507 magnetization       0.0000014      0.0000015      0.0000015

 Free energy of the ion-electron system (eV)
  alpha Z        PSCENC =        64.20128509
  Ewald energy   TEWEN  =     -1439.91766544
  -Hartree energ DENC   =      -754.80137001
  -exchange      EXHF   =        49.02466732
  -V(xc)+E(xc)   XCENC  =        -3.49306771
  PAW double counting   =      2407.75234148    -2323.58185883
  entropy T*S    EENTRO =        -0.00113148
  eigenvalues    EBANDS =      -261.22233123
  atomic energy  EATOM  =      2243.82239720
  free energy    TOTEN  =       -18.21707394 eV

  energy without entropy =      -18.21594246  energy(sigma->0) =      -18.21650820
  exchange ACFDT corr.  =        -0.00054870  see jH, gK, PRB 81, 115126

[...]

--------------------------------------- Iteration      1(  14)  ---------------------------------------

 eigenvalue-minimisations  :     0
 total energy-change (2. order) :-0.9157914E-05  (-0.4818616E-05)
 number of electron      26.0000008 magnetization       0.0000000      0.0000000     -0.0000000
 augmentation part        4.1373819 magnetization       0.0000000      0.0000000      0.0000000

 Free energy of the ion-electron system (eV)
  alpha Z        PSCENC =        64.20128509
  Ewald energy   TEWEN  =     -1439.91766544
  -Hartree energ DENC   =      -756.32429280
  -exchange      EXHF   =        49.16032189
  -V(xc)+E(xc)   XCENC  =        -3.29833079
  PAW double counting   =      2659.29695587    -2574.87596074
  entropy T*S    EENTRO =        -0.00000000
  eigenvalues    EBANDS =      -260.44773461
  atomic energy  EATOM  =      2243.82239720
  free energy    TOTEN  =       -18.38322273 eV

  energy without entropy =      -18.38322273  energy(sigma->0) =      -18.38322273
  exchange ACFDT corr.  =        -0.00000000  see jH, gK, PRB 81, 115126

  average scaling for gradient   0.9455

 average (electrostatic) potential at core
  the test charge radii are     1.2767  1.0856  1.0621
  (the norm of the test charge is              1.0000)
       1 -11.6776       2 -11.6776       3-101.1140       4 -47.9834

 E-fermi :   3.2000     XC(G=0):  -7.3149     alpha+bet : -8.3023

 k-point     1 :       0.0000    0.0000    0.0000
  band No.  band energies     occupation
      1     -23.1581      1.00000
      2     -23.1581      1.00000
      3     -23.1547      1.00000
      4     -23.1547      1.00000
      5     -20.0768      1.00000
      6     -20.0768      1.00000
      7     -20.0575      1.00000
      8     -20.0575      1.00000
      9     -20.0476      1.00000
     10     -20.0476      1.00000
     11     -10.7051      1.00000
     12     -10.7051      1.00000
     13      -8.6670      1.00000
     14      -8.6670      1.00000
     15      -4.5569      1.00000
     16      -4.5569      1.00000
     17      -0.3397      1.00000
     18      -0.3397      1.00000
     19      -0.0254      1.00000
     20      -0.0254      1.00000
     21       1.7500      1.00000
     22       1.7500      1.00000
     23       1.9996      1.00000
     24       1.9996      1.00000
     25       3.0228      1.00000
     26       3.0228      1.00000
     27       3.3746      0.00000
     28       3.3746      0.00000
     29       4.3527      0.00000
     30       4.3527      0.00000
     31       4.5720      0.00000
     32       4.5720      0.00000
     33       6.3481      0.00000
     34       6.3481      0.00000
     35       6.5931      0.00000
     36       6.5931      0.00000
     37       6.7343      0.00000
     38       6.7343      0.00000
     39       9.3493      0.00000
     40       9.3493      0.00000

[...]

 k-point   147 :       0.0000    0.0000    0.5000
  band No.  band energies     occupation
      1     -23.1580      1.00000
      2     -23.1580      1.00000
      3     -23.1547      1.00000
      4     -23.1547      1.00000
      5     -20.0768      1.00000
      6     -20.0768      1.00000
      7     -20.0573      1.00000
      8     -20.0573      1.00000
      9     -20.0476      1.00000
     10     -20.0476      1.00000
     11     -10.0902      1.00000
     12     -10.0902      1.00000
     13      -9.7464      1.00000
     14      -9.7464      1.00000
     15      -2.1285      1.00000
     16      -2.1285      1.00000
     17      -2.0665      1.00000
     18      -2.0665      1.00000
     19       0.2484      1.00000
     20       0.2484      1.00000
     21       0.3821      1.00000
     22       0.3821      1.00000
     23       1.1031      1.00000
     24       1.1032      1.00000
     25       2.1618      1.00000
     26       2.1619      1.00000
     27       4.3043      0.00000
     28       4.3044      0.00000
     29       4.9377      0.00000
     30       4.9378      0.00000
     31       5.7898      0.00000
     32       5.7899      0.00000
     33       6.1588      0.00000
     34       6.1589      0.00000
     35       8.9487      0.00000
     36       8.9578      0.00000
     37       9.1083      0.00000
     38       9.2078      0.00000
     39       9.2983      0.00000
     40       9.6421      0.00000

 soft charge-density along one line, spin component           1
         0         1         2         3         4         5         6         7         8         9
 total charge-density along one line

[...]

 soft charge-density along one line, spin component           4
         0         1         2         3         4         5         6         7         8         9
 total charge-density along one line

------------------------ aborting loop because EDIFF is reached ----------------------------------------

 VOLUME and BASIS-vectors are now :
  energy-cutoff  :      500.00
  volume of cell :      113.64
      direct lattice vectors                 reciprocal lattice vectors
     4.300140858  0.000000000  0.000000000     0.232550522  0.000000000  0.000000000
     0.000000000  4.300140858  0.000000000     0.000000000  0.232550522  0.000000000
     0.000000000  0.000000000  6.145861149     0.000000000  0.000000000  0.162711128

  length of vectors
     4.300140858  4.300140858  6.145861149     0.232550522  0.232550522  0.162711128

 FORCES acting on ions:
    Electron-Ion                     Ewald-Force                    Non-Local-Force
   -.657E-08 0.125E-08 0.477E+02   0.261E-14 -.178E-15 -.473E+02   0.192E-08 -.262E-09 -.377E+00
   -.201E-08 0.346E-08 -.477E+02   -.168E-14 -.547E-14 0.473E+02   0.575E-09 -.126E-08 0.377E+00
   0.937E-08 -.274E-07 0.393E-05   -.341E-14 0.631E-14 0.425E-05   -.285E-07 0.727E-07 -.541E-05
   -.193E-07 0.265E-07 -.344E-05   0.139E-14 0.780E-16 0.515E-06   0.155E-07 -.211E-07 0.374E-05
   0.106E-06 -.168E-06 0.122E-05   -.109E-14 0.740E-15 -.355E-14   -.105E-07 0.501E-07 0.113E-05

 POSITION                                       TOTAL-FORCE (eV/Angst)
      2.15007      0.00000      4.46027        -0.000000      0.000000      0.013556
      0.00000      2.15007      1.68559        -0.000000      0.000000     -0.013558
      0.00000      0.00000      0.00000        -0.000000      0.000000      0.000001
      2.15007      2.15007      3.07293         0.000000     -0.000000      0.000000
    total drift:                                0.000000     -0.000000      0.000002

  FREE ENERGIE OF THE ION-ELECTRON SYSTEM (eV)
  free  energy   TOTEN  =       -18.38322273 eV

  energy  without entropy=      -18.38322273  energy(sigma->0) =      -18.38322273

 Spin-Orbit-Coupling matrix elements

 Ion:    1  E_soc:     -0.0063488
 l=   1
     0.0000000    -0.0008587    -0.0012331
    -0.0008587     0.0000000    -0.0011139
    -0.0012331    -0.0011139     0.0000000
 l=   2
     0.0000000    -0.0000013     0.0000000     0.0000044    -0.0000029
    -0.0000013     0.0000000    -0.0000095     0.0000182    -0.0000009
     0.0000000    -0.0000095     0.0000000     0.0000168     0.0000000
     0.0000044     0.0000182     0.0000168     0.0000000     0.0000064
    -0.0000029    -0.0000009     0.0000000     0.0000064     0.0000000
 l=   3
     0.0000000     0.0000000     0.0000000     0.0000000     0.0000000     0.0000000     0.0000000
     0.0000000     0.0000000     0.0000000     0.0000000     0.0000000     0.0000000     0.0000000
     0.0000000     0.0000000     0.0000000     0.0000000     0.0000000     0.0000000     0.0000000
     0.0000000     0.0000000     0.0000000     0.0000000     0.0000000     0.0000000     0.0000000
     0.0000000     0.0000000     0.0000000     0.0000000     0.0000000     0.0000000     0.0000000
     0.0000000     0.0000000     0.0000000     0.0000000     0.0000000     0.0000000     0.0000000
     0.0000000     0.0000000     0.0000000     0.0000000     0.0000000     0.0000000     0.0000000

[...]

 Ion:    4  E_soc:     -0.0263054
 l=   1
     0.0000000    -0.0041718    -0.0047817
    -0.0041718     0.0000000    -0.0041718
    -0.0047817    -0.0041718     0.0000000
 l=   2
     0.0000000    -0.0000012     0.0000000    -0.0000012    -0.0000074
    -0.0000012     0.0000000    -0.0000067     0.0000008    -0.0000026
     0.0000000    -0.0000067     0.0000000    -0.0000067     0.0000000
    -0.0000012     0.0000008    -0.0000067     0.0000000    -0.0000026
    -0.0000074    -0.0000026     0.0000000    -0.0000026     0.0000000
 l=   3
     0.0000000     0.0000000     0.0000000     0.0000000     0.0000000     0.0000000     0.0000000
     0.0000000     0.0000000     0.0000000     0.0000000     0.0000000     0.0000000     0.0000000
     0.0000000     0.0000000     0.0000000     0.0000000     0.0000000     0.0000000     0.0000000
     0.0000000     0.0000000     0.0000000     0.0000000     0.0000000     0.0000000     0.0000000
     0.0000000     0.0000000     0.0000000     0.0000000     0.0000000     0.0000000     0.0000000
     0.0000000     0.0000000     0.0000000     0.0000000     0.0000000     0.0000000     0.0000000
     0.0000000     0.0000000     0.0000000     0.0000000     0.0000000     0.0000000     0.0000000