 vasp.5.4.4.18Apr17-6-g9f103f2a35 (build Dec 22 2021 20:15:33) complex

 executed on             LinuxIFC date 2022.01.22  18:05:51

 INCAR:
 POTCAR:    PAW_PBE Ga 08Apr2002
 POTCAR:    PAW_PBE Bi_d 06Sep2000
 POTCAR:    PAW_PBE As 22Sep2009

 POTCAR:    PAW_PBE Ga 08Apr2002
   VRHFIN =Ga: s2p1

   TITEL  = PAW_PBE Ga 08Apr2002
   POMASS =   69.723; ZVAL   =    3.000    mass and valenz
   ENMAX  =  134.678; ENMIN  =  101.009 eV

 POTCAR:    PAW_PBE Bi_d 06Sep2000
   VRHFIN =Bi:

   TITEL  = PAW_PBE Bi_d 06Sep2000
   POMASS =  208.980; ZVAL   =   15.000    mass and valenz
   ENMAX  =  242.839; ENMIN  =  182.129 eV

 POTCAR:    PAW_PBE As 22Sep2009
   VRHFIN =As: s2p3

   TITEL  = PAW_PBE As 22Sep2009
   POMASS =   74.922; ZVAL   =    5.000    mass and valenz
   ENMAX  =  208.702; ENMIN  =  156.526 eV

  PAW_PBE Ga 08Apr2002                  :
  PAW_PBE Bi_d 06Sep2000                :
  PAW_PBE As 22Sep2009                  :

 POSCAR: Ga2 Bi1 As1
  positions in direct lattice
 exchange correlation table for  LEXCH =        8
   RHO(1)=    0.500       N(1)  =     2000
   RHO(2)=  100.500       N(2)  =     4000

 ion  position               nearest neighbor table
   1  0.500  0.000  0.726-   4 2.56   4 2.56   3 2.73   3 2.73
   2  0.000  0.500  0.274-   4 2.56   4 2.56   3 2.73   3 2.73
   3  0.000  0.000  0.000-   1 2.73   1 2.73   2 2.73   2 2.73
   4  0.500  0.500  0.500-   2 2.56   2 2.56   1 2.56   1 2.56

IMPORTANT INFORMATION: All symmetrisations will be switched off!
NOSYMM: (Re-)initialisation of all symmetry stuff for point group C_1.

 KPOINTS: MP

Automatic generation of k-mesh.
Space group operators:
 irot       det(A)        alpha          n_x          n_y          n_z        tau_x        tau_y        tau_z
    1     1.000000     0.000001     1.000000     0.000000     0.000000     0.000000     0.000000     0.000000

 Subroutine IBZKPT returns following result:

 Found    245 irreducible k-points:

 Following reciprocal coordinates:
            Coordinates               Weight
  0.000000  0.000000  0.000000      1.000000
  0.142857  0.000000  0.000000      1.000000
  0.285714  0.000000  0.000000      1.000000
  0.428571  0.000000  0.000000      1.000000
 -0.428571  0.000000  0.000000      1.000000
 -0.285714  0.000000  0.000000      1.000000
 -0.142857  0.000000  0.000000      1.000000
  0.000000  0.142857  0.000000      1.000000
  0.142857  0.142857  0.000000      1.000000
  0.285714  0.142857  0.000000      1.000000
  0.428571  0.142857  0.000000      1.000000
 -0.428571  0.142857  0.000000      1.000000
 -0.285714  0.142857  0.000000      1.000000
 -0.142857  0.142857  0.000000      1.000000
  0.000000  0.285714  0.000000      1.000000
  0.142857  0.285714  0.000000      1.000000
  0.285714  0.285714  0.000000      1.000000
  0.428571  0.285714  0.000000      1.000000
 -0.428571  0.285714  0.000000      1.000000
 -0.285714  0.285714  0.000000      1.000000
 -0.142857  0.285714  0.000000      1.000000
  0.000000  0.428571  0.000000      1.000000
  0.142857  0.428571  0.000000      1.000000
  0.285714  0.428571  0.000000      1.000000
  0.428571  0.428571  0.000000      1.000000
 -0.428571  0.428571  0.000000      1.000000
 -0.285714  0.428571  0.000000      1.000000
 -0.142857  0.428571  0.000000      1.000000
  0.000000 -0.428571  0.000000      1.000000
  0.142857 -0.428571  0.000000      1.000000
  0.285714 -0.428571  0.000000      1.000000
  0.428571 -0.428571  0.000000      1.000000
 -0.428571 -0.428571  0.000000      1.000000
 -0.285714 -0.428571  0.000000      1.000000
 -0.142857 -0.428571  0.000000      1.000000
  0.000000 -0.285714  0.000000      1.000000
  0.142857 -0.285714  0.000000      1.000000
  0.285714 -0.285714  0.000000      1.000000
  0.428571 -0.285714  0.000000      1.000000
 -0.428571 -0.285714  0.000000      1.000000
 -0.285714 -0.285714  0.000000      1.000000
 -0.142857 -0.285714  0.000000      1.000000
  0.000000 -0.142857  0.000000      1.000000
  0.142857 -0.142857  0.000000      1.000000
  0.285714 -0.142857  0.000000      1.000000
  0.428571 -0.142857  0.000000      1.000000
 -0.428571 -0.142857  0.000000      1.000000
 -0.285714 -0.142857  0.000000      1.000000
 -0.142857 -0.142857  0.000000      1.000000
  0.000000  0.000000  0.200000      1.000000
  0.142857  0.000000  0.200000      1.000000
  0.285714  0.000000  0.200000      1.000000
  0.428571  0.000000  0.200000      1.000000
 -0.428571  0.000000  0.200000      1.000000
 -0.285714  0.000000  0.200000      1.000000
 -0.142857  0.000000  0.200000      1.000000
  0.000000  0.142857  0.200000      1.000000
  0.142857  0.142857  0.200000      1.000000
  0.285714  0.142857  0.200000      1.000000
  0.428571  0.142857  0.200000      1.000000
[...]
 -0.142857 -0.428571 -0.200000      1.000000
  0.000000 -0.285714 -0.200000      1.000000
  0.142857 -0.285714 -0.200000      1.000000
  0.285714 -0.285714 -0.200000      1.000000
  0.428571 -0.285714 -0.200000      1.000000
 -0.428571 -0.285714 -0.200000      1.000000
 -0.285714 -0.285714 -0.200000      1.000000
 -0.142857 -0.285714 -0.200000      1.000000
  0.000000 -0.142857 -0.200000      1.000000
  0.142857 -0.142857 -0.200000      1.000000
  0.285714 -0.142857 -0.200000      1.000000
  0.428571 -0.142857 -0.200000      1.000000
 -0.428571 -0.142857 -0.200000      1.000000
 -0.285714 -0.142857 -0.200000      1.000000
 -0.142857 -0.142857 -0.200000      1.000000

 Following cartesian coordinates:
            Coordinates               Weight
  0.000000  0.000000  0.000000      1.000000
  0.033222  0.000000  0.000000      1.000000
  0.066443  0.000000  0.000000      1.000000
  0.099665  0.000000  0.000000      1.000000
 -0.099665  0.000000  0.000000      1.000000
 -0.066443  0.000000  0.000000      1.000000
 -0.033222  0.000000  0.000000      1.000000
  0.000000  0.033222  0.000000      1.000000
  0.033222  0.033222  0.000000      1.000000
  0.066443  0.033222  0.000000      1.000000
  0.099665  0.033222  0.000000      1.000000
 -0.099665  0.033222  0.000000      1.000000
 -0.066443  0.033222  0.000000      1.000000
 -0.033222  0.033222  0.000000      1.000000
  0.000000  0.066443  0.000000      1.000000
  0.033222  0.066443  0.000000      1.000000
  0.066443  0.066443  0.000000      1.000000
  0.099665  0.066443  0.000000      1.000000
 -0.099665  0.066443  0.000000      1.000000
 -0.066443  0.066443  0.000000      1.000000
 -0.033222  0.066443  0.000000      1.000000
  0.000000  0.099665  0.000000      1.000000
  0.033222  0.099665  0.000000      1.000000
  0.066443  0.099665  0.000000      1.000000
  0.099665  0.099665  0.000000      1.000000
 -0.099665  0.099665  0.000000      1.000000
 -0.066443  0.099665  0.000000      1.000000
 -0.033222  0.099665  0.000000      1.000000
  0.000000 -0.099665  0.000000      1.000000
  0.033222 -0.099665  0.000000      1.000000
  0.066443 -0.099665  0.000000      1.000000
  0.099665 -0.099665  0.000000      1.000000
 -0.099665 -0.099665  0.000000      1.000000
 -0.066443 -0.099665  0.000000      1.000000
 -0.033222 -0.099665  0.000000      1.000000
  0.000000 -0.066443  0.000000      1.000000
  0.033222 -0.066443  0.000000      1.000000
  0.066443 -0.066443  0.000000      1.000000
  0.099665 -0.066443  0.000000      1.000000
 -0.099665 -0.066443  0.000000      1.000000
 -0.066443 -0.066443  0.000000      1.000000
 -0.033222 -0.066443  0.000000      1.000000
  0.000000 -0.033222  0.000000      1.000000
  0.033222 -0.033222  0.000000      1.000000
  0.066443 -0.033222  0.000000      1.000000
  0.099665 -0.033222  0.000000      1.000000
 -0.099665 -0.033222  0.000000      1.000000
 -0.066443 -0.033222  0.000000      1.000000
 -0.033222 -0.033222  0.000000      1.000000
  0.000000  0.000000  0.032542      1.000000
  0.033222  0.000000  0.032542      1.000000
  0.066443  0.000000  0.032542      1.000000
  0.099665  0.000000  0.032542      1.000000
 -0.099665  0.000000  0.032542      1.000000
 -0.066443  0.000000  0.032542      1.000000
 -0.033222  0.000000  0.032542      1.000000
  0.000000  0.033222  0.032542      1.000000
  0.033222  0.033222  0.032542      1.000000
  0.066443  0.033222  0.032542      1.000000
  0.099665  0.033222  0.032542      1.000000
[...]
 -0.033222 -0.099665 -0.032542      1.000000
  0.000000 -0.066443 -0.032542      1.000000
  0.033222 -0.066443 -0.032542      1.000000
  0.066443 -0.066443 -0.032542      1.000000
  0.099665 -0.066443 -0.032542      1.000000
 -0.099665 -0.066443 -0.032542      1.000000
 -0.066443 -0.066443 -0.032542      1.000000
 -0.033222 -0.066443 -0.032542      1.000000
  0.000000 -0.033222 -0.032542      1.000000
  0.033222 -0.033222 -0.032542      1.000000
  0.066443 -0.033222 -0.032542      1.000000
  0.099665 -0.033222 -0.032542      1.000000
 -0.099665 -0.033222 -0.032542      1.000000
 -0.066443 -0.033222 -0.032542      1.000000
 -0.033222 -0.033222 -0.032542      1.000000

 Subroutine IBZKPT_HF returns following result:

 Found    245 k-points in 1st BZ
 the following    245 k-points will be used (e.g. in the exchange kernel)
 Following reciprocal coordinates:   # in IRBZ
  0.000000  0.000000  0.000000    0.00408163   1 t-inv F
  0.142857  0.000000  0.000000    0.00408163   2 t-inv F
  0.285714  0.000000  0.000000    0.00408163   3 t-inv F
  0.428571  0.000000  0.000000    0.00408163   4 t-inv F
 -0.428571  0.000000  0.000000    0.00408163   5 t-inv F
 -0.285714  0.000000  0.000000    0.00408163   6 t-inv F
 -0.142857  0.000000  0.000000    0.00408163   7 t-inv F
  0.000000  0.142857  0.000000    0.00408163   8 t-inv F
  0.142857  0.142857  0.000000    0.00408163   9 t-inv F
  0.285714  0.142857  0.000000    0.00408163  10 t-inv F
  0.428571  0.142857  0.000000    0.00408163  11 t-inv F
 -0.428571  0.142857  0.000000    0.00408163  12 t-inv F
 -0.285714  0.142857  0.000000    0.00408163  13 t-inv F
 -0.142857  0.142857  0.000000    0.00408163  14 t-inv F
  0.000000  0.285714  0.000000    0.00408163  15 t-inv F
  0.142857  0.285714  0.000000    0.00408163  16 t-inv F
  0.285714  0.285714  0.000000    0.00408163  17 t-inv F
  0.428571  0.285714  0.000000    0.00408163  18 t-inv F
 -0.428571  0.285714  0.000000    0.00408163  19 t-inv F
 -0.285714  0.285714  0.000000    0.00408163  20 t-inv F
 -0.142857  0.285714  0.000000    0.00408163  21 t-inv F
  0.000000  0.428571  0.000000    0.00408163  22 t-inv F
  0.142857  0.428571  0.000000    0.00408163  23 t-inv F
  0.285714  0.428571  0.000000    0.00408163  24 t-inv F
  0.428571  0.428571  0.000000    0.00408163  25 t-inv F
 -0.428571  0.428571  0.000000    0.00408163  26 t-inv F
 -0.285714  0.428571  0.000000    0.00408163  27 t-inv F
 -0.142857  0.428571  0.000000    0.00408163  28 t-inv F
  0.000000 -0.428571  0.000000    0.00408163  29 t-inv F
  0.142857 -0.428571  0.000000    0.00408163  30 t-inv F
  0.285714 -0.428571  0.000000    0.00408163  31 t-inv F
  0.428571 -0.428571  0.000000    0.00408163  32 t-inv F
 -0.428571 -0.428571  0.000000    0.00408163  33 t-inv F
 -0.285714 -0.428571  0.000000    0.00408163  34 t-inv F
 -0.142857 -0.428571  0.000000    0.00408163  35 t-inv F
  0.000000 -0.285714  0.000000    0.00408163  36 t-inv F
  0.142857 -0.285714  0.000000    0.00408163  37 t-inv F
[...]
 k-point ** :   0.4286 0.4286 0.4000  plane waves:    5774
 k-point ** :  -0.4286 0.4286 0.4000  plane waves:    5774
 k-point ** :  -0.2857 0.4286 0.4000  plane waves:    5784
 k-point ** :  -0.1429 0.4286 0.4000  plane waves:    5790
 k-point ** :   0.0000-0.4286 0.4000  plane waves:    5778
 k-point ** :   0.1429-0.4286 0.4000  plane waves:    5790
 k-point ** :   0.2857-0.4286 0.4000  plane waves:    5784
 k-point ** :   0.4286-0.4286 0.4000  plane waves:    5774
 k-point ** :  -0.4286-0.4286 0.4000  plane waves:    5774
 k-point ** :  -0.2857-0.4286 0.4000  plane waves:    5784
 k-point ** :  -0.1429-0.4286 0.4000  plane waves:    5790
 k-point ** :   0.0000-0.2857 0.4000  plane waves:    5770
 k-point ** :   0.1429-0.2857 0.4000  plane waves:    5762
 k-point ** :   0.2857-0.2857 0.4000  plane waves:    5796
 k-point ** :   0.4286-0.2857 0.4000  plane waves:    5784
 k-point ** :  -0.4286-0.2857 0.4000  plane waves:    5784
 k-point ** :  -0.2857-0.2857 0.4000  plane waves:    5796
 k-point ** :  -0.1429-0.2857 0.4000  plane waves:    5762
 k-point ** :   0.0000-0.1429 0.4000  plane waves:    5758
 k-point ** :   0.1429-0.1429 0.4000  plane waves:    5750
 k-point ** :   0.2857-0.1429 0.4000  plane waves:    5762
 k-point ** :   0.4286-0.1429 0.4000  plane waves:    5790
 k-point ** :  -0.4286-0.1429 0.4000  plane waves:    5790
 k-point ** :  -0.2857-0.1429 0.4000  plane waves:    5762
 k-point ** :  -0.1429-0.1429 0.4000  plane waves:    5750
 k-point ** :   0.0000 0.0000-0.4000  plane waves:    5788
 k-point ** :   0.1429 0.0000-0.4000  plane waves:    5758
 k-point ** :   0.2857 0.0000-0.4000  plane waves:    5770
 k-point ** :   0.4286 0.0000-0.4000  plane waves:    5778
 k-point ** :  -0.4286 0.0000-0.4000  plane waves:    5778
 k-point ** :  -0.2857 0.0000-0.4000  plane waves:    5770
 k-point ** :  -0.1429 0.0000-0.4000  plane waves:    5758
 k-point ** :   0.0000 0.1429-0.4000  plane waves:    5758
 k-point ** :   0.1429 0.1429-0.4000  plane waves:    5750
 k-point ** :   0.2857 0.1429-0.4000  plane waves:    5762
 k-point ** :   0.4286 0.1429-0.4000  plane waves:    5790
 k-point ** :  -0.4286 0.1429-0.4000  plane waves:    5790
[...]
 k-point ** :  -0.1429-0.4286-0.2000  plane waves:    5774
 k-point ** :   0.0000-0.2857-0.2000  plane waves:    5770
 k-point ** :   0.1429-0.2857-0.2000  plane waves:    5752
 k-point ** :   0.2857-0.2857-0.2000  plane waves:    5770
 k-point ** :   0.4286-0.2857-0.2000  plane waves:    5776
 k-point ** :  -0.4286-0.2857-0.2000  plane waves:    5776
 k-point ** :  -0.2857-0.2857-0.2000  plane waves:    5770
 k-point ** :  -0.1429-0.2857-0.2000  plane waves:    5752
 k-point ** :   0.0000-0.1429-0.2000  plane waves:    5754
 k-point ** :   0.1429-0.1429-0.2000  plane waves:    5746
 k-point ** :   0.2857-0.1429-0.2000  plane waves:    5752
 k-point ** :   0.4286-0.1429-0.2000  plane waves:    5774
 k-point ** :  -0.4286-0.1429-0.2000  plane waves:    5774
 k-point ** :  -0.2857-0.1429-0.2000  plane waves:    5752
 k-point ** :  -0.1429-0.1429-0.2000  plane waves:    5746

 maximum and minimum number of plane-waves per node :      5796     5746

 maximum number of plane-waves:      5796
 maximum index in each direction:
   IXMAX=    8   IYMAX=    8   IZMAX=   11
   IXMIN=   -8   IYMIN=   -8   IZMIN=  -11

 serial   3D FFT for wavefunctions
 parallel 3D FFT for charge:
    minimum data exchange during FFTs selected (reduces bandwidth)

 Broyden mixing: mesh for mixing (old mesh)
   NGX = 15   NGY = 15   NGZ = 23
  (NGX  = 64   NGY  = 64   NGZ  = 96)
  gives a total of   5175 points

 initial charge density was supplied:
 charge density of overlapping atoms calculated
 number of electron      26.0000000 magnetization       4.0000000      4.0000000      4.0000000
 keeping initial charge density in first step

 Maximum index for augmentation-charges         1538 (set IRDMAX)

 First call to EWALD:  gamma=   0.366
 Maximum number of real-space cells 3x 3x 2
 Maximum number of reciprocal cells 2x 2x 3

--------------------------------------- Iteration      1(   1)  ---------------------------------------

 eigenvalue-minimisations  : 34848
 total energy-change (2. order) :-0.1364153E+02  (-0.1123059E+00)
 number of electron      26.0000008 magnetization       0.9041993      0.9041994      0.9007303
 augmentation part        3.9154263 magnetization       0.6739166      0.6739126      0.6798393

 Broyden mixing:
  rms(total) = 0.10862E+01    rms(broyden)= 0.10862E+01
  rms(prec ) = 0.11630E+01
  weight for this iteration     100.00

 Free energy of the ion-electron system (eV)
  alpha Z        PSCENC =        64.20128509
  Ewald energy   TEWEN  =     -1439.91766544
  -Hartree energ DENC   =      -749.41397116
  -exchange      EXHF   =         0.00000000
  -V(xc)+E(xc)   XCENC  =        -0.63881372
  PAW double counting   =      1945.46521363    -1846.94975616
  entropy T*S    EENTRO =        -0.00093591
  eigenvalues    EBANDS =      -233.51010790
  atomic energy  EATOM  =      2247.12322143
  Solvation  Ediel_sol  =         0.00000000
  free energy    TOTEN  =       -13.64153015 eV

  energy without entropy =      -13.64059424  energy(sigma->0) =      -13.64106219

[...]

 eigenvalues of (default mixing * dielectric matrix)
  average eigenvalue GAMMA=   0.8150
  0.8150

[...]

 eigenvalue-minimisations  : 30240
 total energy-change (2. order) : 0.1786391E-02  (-0.9914894E-03)
 number of electron      26.0000008 magnetization      -0.0171676     -0.0171678     -0.0197984
 augmentation part        3.9533096 magnetization      -0.0088378     -0.0088381     -0.0096366

[...]

 Broyden mixing:
  rms(total) = 0.64515E-04    rms(broyden)= 0.64515E-04
  rms(prec ) = 0.84430E-04
  weight for this iteration     100.00

 eigenvalues of (default mixing * dielectric matrix)
  average eigenvalue GAMMA=   1.3822
  3.3137  2.4811  2.3443  1.3924  1.1139  1.0311  0.8375  0.7385  0.7095  0.6163
  0.6256

[...]

--------------------------------------- Iteration      1(  13)  ---------------------------------------

 eigenvalue-minimisations  : 26496
 total energy-change (2. order) :-0.7063591E-07  (-0.4188111E-08)
 number of electron      26.0000008 magnetization       0.0000002      0.0000002     -0.0000000
 augmentation part        3.9555674 magnetization       0.0000070      0.0000070      0.0000095

 Free energy of the ion-electron system (eV)
  alpha Z        PSCENC =        64.20128509
  Ewald energy   TEWEN  =     -1439.91766544
  -Hartree energ DENC   =      -754.60614824
  -exchange      EXHF   =         0.00000000
  -V(xc)+E(xc)   XCENC  =        -0.91639863
  PAW double counting   =      2401.25295928    -2306.85725041
  entropy T*S    EENTRO =        -0.00137663
  eigenvalues    EBANDS =      -225.91143662
  atomic energy  EATOM  =      2247.12322143
  Solvation  Ediel_sol  =         0.00000000
  free energy    TOTEN  =       -15.63281018 eV

  energy without entropy =      -15.63143355  energy(sigma->0) =      -15.63212186

 average (electrostatic) potential at core
  the test charge radii are     1.2767  1.0856  1.0621
  (the norm of the test charge is              1.0000)
       1 -14.6617       2 -14.6617       3-107.2409       4 -51.6414

 E-fermi :   3.1717     XC(G=0):  -8.7497     alpha+bet : -8.3023

 k-point     1 :       0.0000    0.0000    0.0000
  band No.  band energies     occupation
      1     -20.9120      1.00000
      2     -20.9120      1.00000
      3     -20.9101      1.00000
      4     -20.9101      1.00000
      5     -17.9695      1.00000
      6     -17.9695      1.00000
      7     -17.9499      1.00000
      8     -17.9499      1.00000
      9     -17.9419      1.00000
     10     -17.9419      1.00000
     11      -9.1504      1.00000
     12      -9.1504      1.00000
     13      -7.3975      1.00000
     14      -7.3975      1.00000
     15      -3.5585      1.00000
     16      -3.5585      1.00000
     17       0.2791      1.00000
     18       0.2791      1.00000
     19       0.5681      1.00000
     20       0.5681      1.00000
     21       1.8525      1.00000
     22       1.8525      1.00000
     23       2.1674      1.00000
     24       2.1674      1.00000
     25       3.3229      0.00001
     26       3.3229      0.00001
     27       3.6240      0.00000
     28       3.6240      0.00000
     29       4.1706      0.00000
     30       4.1706      0.00000
     31       4.3914      0.00000
     32       4.3914      0.00000
     33       6.0596      0.00000
     34       6.0596      0.00000
     35       6.2755      0.00000
     36       6.2755      0.00000
     37       6.4151      0.00000
     38       6.4151      0.00000
     39       8.8916      0.00000
     40       8.8916      0.00000
     41      11.1467      0.00000
     42      11.1467      0.00000
     43      11.5923      0.00000
     44      11.5923      0.00000
     45      12.0716      0.00000
     46      12.0716      0.00000
     47      12.1914      0.00000
     48      12.1914      0.00000

[...]

 k-point   245 :      -0.1429   -0.1429   -0.2000
  band No.  band energies     occupation
      1     -20.9134      1.00000
      2     -20.9124      1.00000
      3     -20.9095      1.00000
      4     -20.9074      1.00000
      5     -17.9712      1.00000
      6     -17.9646      1.00000
      7     -17.9507      1.00000
      8     -17.9485      1.00000
      9     -17.9433      1.00000
     10     -17.9408      1.00000
     11      -8.8098      1.00000
     12      -8.8096      1.00000
     13      -7.5913      1.00000
     14      -7.5879      1.00000
     15      -3.2339      1.00000
     16      -3.1041      1.00000
     17      -0.6389      1.00000
     18      -0.6125      1.00000
     19      -0.1197      1.00000
     20       0.1804      1.00000
     21       0.5534      1.00000
     22       0.5859      1.00000
     23       1.5333      1.00000
     24       2.1431      1.00000
     25       2.5918      1.00000
     26       2.8091      1.00000
     27       4.1292      0.00000
     28       4.3126      0.00000
     29       5.1901      0.00000
     30       5.4500      0.00000
     31       5.6552      0.00000
     32       5.7927      0.00000
     33       6.0769      0.00000
     34       6.1380      0.00000
     35       7.0360      0.00000
     36       7.3682      0.00000
     37       7.4975      0.00000
     38       7.5751      0.00000
     39       8.4833      0.00000
     40       8.5781      0.00000
     41      10.1013      0.00000
     42      10.2987      0.00000
     43      10.5770      0.00000
     44      10.7429      0.00000
     45      10.7523      0.00000
     46      10.8126      0.00000
     47      11.3042      0.00000
     48      11.3224      0.00000

 soft charge-density along one line, spin component           1
         0         1         2         3         4         5         6         7         8         9
 total charge-density along one line

[...]

 soft charge-density along one line, spin component           4
         0         1         2         3         4         5         6         7         8         9
 total charge-density along one line

------------------------ aborting loop because EDIFF is reached ----------------------------------------

  FORCE on cell =-STRESS in cart. coord.  units (eV):
  Direction    XX          YY          ZZ          XY          YZ          ZX
  Alpha Z    64.20129    64.20129    64.20129
  Ewald    -439.74121  -439.74123  -560.43629     0.00000     0.00000    -0.00000
  Hartree   290.89500   290.89499   172.81696    -0.00000    -0.00000    -0.00000
  E(xc)    -113.06808  -113.06808  -113.02797     0.00000     0.00000     0.00000
  Local    -321.32208  -321.32205   -82.50286     0.00000     0.00000     0.00000
  n-local   155.67137   155.67137   155.87657    -0.00000     0.00000     0.00000
  augment   138.72757   138.72757   138.67476     0.00000     0.00000     0.00000
  Kinetic   224.94229   224.94229   224.70847     0.00000     0.00000     0.00000
  Fock        0.00000     0.00000     0.00000     0.00000     0.00000     0.00000
  Total       0.30614     0.30614     0.31092     0.00000     0.00000     0.00000
  in kB       4.31606     4.31603     4.38341     0.00001     0.00003     0.00003

 VOLUME and BASIS-vectors are now :
  energy-cutoff  :      500.00
  volume of cell :      113.64
      direct lattice vectors                 reciprocal lattice vectors
     4.300140858  0.000000000  0.000000000     0.232550522  0.000000000  0.000000000
     0.000000000  4.300140858  0.000000000     0.000000000  0.232550522  0.000000000
     0.000000000  0.000000000  6.145861149     0.000000000  0.000000000  0.162711128

  length of vectors
     4.300140858  4.300140858  6.145861149     0.232550522  0.232550522  0.162711128

 FORCES acting on ions
    electron-ion (+dipol)            ewald-force                    non-local-force                 convergence-correction
   -.188E-05 -.933E-06 0.477E+02   0.261E-14 -.178E-15 -.473E+02   0.646E-06 0.214E-06 -.400E+00   0.129E-05 0.675E-06 0.665E-04
   0.932E-06 0.188E-05 -.477E+02   -.168E-14 -.547E-14 0.473E+02   -.213E-06 -.646E-06 0.400E+00   -.675E-06 -.129E-05 -.665E-04
   0.110E-04 -.111E-04 -.325E-05   -.341E-14 0.631E-14 0.425E-05   0.324E-05 -.326E-05 -.543E-06   -.138E-04 0.139E-04 -.611E-07
   -.128E-05 0.127E-05 -.285E-06   0.139E-14 0.780E-16 0.515E-06   0.219E-06 -.214E-06 0.150E-06   0.987E-06 -.983E-06 0.245E-08
   0.880E-05 -.891E-05 0.110E-05   -.109E-14 0.740E-15 -.355E-14   0.389E-05 -.391E-05 -.103E-05   -.122E-04 0.123E-04 -.619E-07

 POSITION                                       TOTAL-FORCE (eV/Angst)
      2.15007      0.00000      4.46027        -0.000000      0.000000     -0.068363
      0.00000      2.15007      1.68559        -0.000000      0.000000      0.068362
      0.00000      0.00000      0.00000         0.000000     -0.000000      0.000000
      2.15007      2.15007      3.07293        -0.000000      0.000000      0.000000
    total drift:                                0.000000     -0.000000      0.000000

  FREE ENERGIE OF THE ION-ELECTRON SYSTEM (eV)
  free  energy   TOTEN  =       -15.63281018 eV

  energy  without entropy=      -15.63143355  energy(sigma->0) =      -15.63212186

 Spin-Orbit-Coupling matrix elements

 Ion:    1  E_soc:     -0.0070628
 l=   1
     0.0000000    -0.0009863    -0.0011844
    -0.0009863     0.0000000    -0.0014139
    -0.0011844    -0.0014139     0.0000000
 l=   2
     0.0000000    -0.0000003     0.0000000     0.0000054     0.0000011
    -0.0000003     0.0000000    -0.0000056     0.0000165     0.0000069
     0.0000000    -0.0000056     0.0000000     0.0000146     0.0000000
     0.0000054     0.0000165     0.0000146     0.0000000     0.0000146
     0.0000011     0.0000069     0.0000000     0.0000146     0.0000000
 l=   3
     0.0000000     0.0000000     0.0000000     0.0000000     0.0000000     0.0000000     0.0000000
     0.0000000     0.0000000     0.0000000     0.0000000     0.0000000     0.0000000     0.0000000
     0.0000000     0.0000000     0.0000000     0.0000000     0.0000000     0.0000000     0.0000000
     0.0000000     0.0000000     0.0000000     0.0000000     0.0000000     0.0000000     0.0000000
     0.0000000     0.0000000     0.0000000     0.0000000     0.0000000     0.0000000     0.0000000
     0.0000000     0.0000000     0.0000000     0.0000000     0.0000000     0.0000000     0.0000000
     0.0000000     0.0000000     0.0000000     0.0000000     0.0000000     0.0000000     0.0000000

[...]

 Ion:    4  E_soc:     -0.0295116
 l=   1
     0.0000000    -0.0048925    -0.0049390
    -0.0048925     0.0000000    -0.0048925
    -0.0049390    -0.0048925     0.0000000
 l=   2
     0.0000000    -0.0000025     0.0000000    -0.0000025    -0.0000092
    -0.0000025     0.0000000    -0.0000076    -0.0000004    -0.0000011
     0.0000000    -0.0000076     0.0000000    -0.0000076     0.0000000
    -0.0000025    -0.0000004    -0.0000076     0.0000000    -0.0000011
    -0.0000092    -0.0000011     0.0000000    -0.0000011     0.0000000
 l=   3
     0.0000000     0.0000000     0.0000000     0.0000000     0.0000000     0.0000000     0.0000000
     0.0000000     0.0000000     0.0000000     0.0000000     0.0000000     0.0000000     0.0000000
     0.0000000     0.0000000     0.0000000     0.0000000     0.0000000     0.0000000     0.0000000
     0.0000000     0.0000000     0.0000000     0.0000000     0.0000000     0.0000000     0.0000000
     0.0000000     0.0000000     0.0000000     0.0000000     0.0000000     0.0000000     0.0000000
     0.0000000     0.0000000     0.0000000     0.0000000     0.0000000     0.0000000     0.0000000
     0.0000000     0.0000000     0.0000000     0.0000000     0.0000000     0.0000000     0.0000000