 vasp.5.4.4.18Apr17-6-g9f103f2a35 (build Dec 27 2023 19:01:44) complex

 executed on             LinuxIFC date 2020.08.23  17:09:17

 INCAR:
 POTCAR:    PAW_PBE Ga 08Apr2002
 POTCAR:    PAW_PBE Bi_d 06Sep2000
 POTCAR:    PAW_PBE As 22Sep2009
 POTCAR:    PAW_PBE Ga 08Apr2002
   VRHFIN =Ga: s2p1

   TITEL  = PAW_PBE Ga 08Apr2002
   POMASS =   69.723; ZVAL   =    3.000    mass and valenz
   ENMAX  =  134.678; ENMIN  =  101.009 eV

 POTCAR:    PAW_PBE Bi_d 06Sep2000
   VRHFIN =Bi:

   TITEL  = PAW_PBE Bi_d 06Sep2000
   POMASS =  208.980; ZVAL   =   15.000    mass and valenz
   ENMAX  =  242.839; ENMIN  =  182.129 eV

 POTCAR:    PAW_PBE As 22Sep2009
   VRHFIN =As: s2p3

   TITEL  = PAW_PBE As 22Sep2009
   POMASS =   74.922; ZVAL   =    5.000    mass and valenz
   ENMAX  =  208.702; ENMIN  =  156.526 eV

  PAW_PBE Ga 08Apr2002                  :
  PAW_PBE Bi_d 06Sep2000                :
  PAW_PBE As 22Sep2009                  :

 POSCAR: Ga2 Bi1 As1
  positions in direct lattice
 exchange correlation table for  LEXCH =        8
   RHO(1)=    0.500       N(1)  =     2000
   RHO(2)=  100.500       N(2)  =     4000

 ion  position               nearest neighbor table
   1  0.500  0.000  0.726-   4 2.56   4 2.56   3 2.73   3 2.73
   2  0.000  0.500  0.274-   4 2.56   4 2.56   3 2.73   3 2.73
   3  0.000  0.000  0.000-   1 2.73   1 2.73   2 2.73   2 2.73
   4  0.500  0.500  0.500-   2 2.56   2 2.56   1 2.56   1 2.56

  LATTYP: Found a simple tetragonal cell.
 ALAT       =     4.3001408577
 C/A-ratio  =     1.4292232167

  Lattice vectors:

 A1 = (   4.3001408577,   0.0000000000,   0.0000000000)
 A2 = (   0.0000000000,   4.3001408577,   0.0000000000)
 A3 = (   0.0000000000,   0.0000000000,   6.1458611488)

Analysis of symmetry for initial positions (statically):
 Subroutine PRICEL returns:
 Original cell was already a primitive cell.

 Routine SETGRP: Setting up the symmetry group for a
 simple tetragonal supercell.

 Subroutine GETGRP returns: Found  8 space group operations
 (whereof  8 operations were pure point group operations)
 out of a pool of 16 trial point group operations.

The static configuration has the point symmetry D_2d.

Analysis of symmetry for dynamics (positions and initial velocities):
 Subroutine PRICEL returns:
 Original cell was already a primitive cell.

[...]

The dynamic configuration has the point symmetry D_2d.

Analysis of structural, dynamic, and magnetic symmetry:
 Subroutine PRICEL returns:
 Original cell was already a primitive cell.

 Routine SETGRP: Setting up the symmetry group for a
 simple tetragonal supercell.

 Subroutine GETGRP returns: Found  1 space group operations
 (whereof  1 operations were pure point group operations)
 out of a pool of 16 trial point group operations.

The (compounded) configuration has the point symmetry C_1 .

 Subroutine INISYM returns: Found  1 space group operations
 (whereof  1 operations are pure point group operations),
 and found     1 'primitive' translations

 KPOINTS: K-points alon1g high symmetry lines
  interpolating k-points between supplied coordinates
  k-points in reciprocal lattice
Space group operators:
 irot       det(A)        alpha          n_x          n_y          n_z        tau_x        tau_y        tau_z
    1     1.000000     0.000001     1.000000     0.000000     0.000000     0.000000     0.000000     0.000000

 SYSTEM =  Ga2BiAs
 POSCAR =  Ga2 Bi1 As1

 Startparameter for this run:
   NWRITE =      2    write-flag & timer
   PREC   = accura    normal or accurate (medium, high low for compatibility)
   ISTART =      1    job   : 0-new  1-cont  2-samecut
   ICHARG =      2    charge: 1-file 2-atom 10-const
   ISPIN  =      1    spin polarized calculation?
   LNONCOLLINEAR =      T non collinear calculations
   LSORBIT =      T    spin-orbit coupling
   INIWAV =      1    electr: 0-lowe 1-rand  2-diag
   LASPH  =      F    aspherical Exc in radial PAW
   METAGGA=      F    non-selfconsistent MetaGGA calc.

 Electronic Relaxation 1
   ENCUT  =  500.0 eV  36.75 Ry    6.06 a.u.   7.84  7.84 11.21*2*pi/ulx,y,z
   ENINI  =  500.0     initial cutoff
   ENAUG  =  462.8 eV  augmentation charge cutoff
   NELM   =     60;   NELMIN=  2; NELMDL=  0     # of ELM steps
   EDIFF  = 0.1E-04   stopping-criterion for ELM
   LREAL  =      F    real-space projection
   NLSPLINE    = F    spline interpolate recip. space projectors
   LCOMPAT=      F    compatible to vasp.4.4
   GGA_COMPAT  = T    GGA compatible to vasp.4.4-vasp.4.6
   LMAXPAW     = -100 max onsite density
   LMAXMIX     =    2 max onsite mixed and CHGCAR
   VOSKOWN=      0    Vosko Wilk Nusair interpolation
   ROPT   =    0.00000   0.00000   0.00000
 Ionic relaxation
   EDIFFG = -.1E-01   stopping-criterion for IOM
   NSW    =      0    number of steps for IOM
   NBLOCK =      1;   KBLOCK =      1    inner block; outer block
   IBRION =     -1    ionic relax: 0-MD 1-quasi-New 2-CG
   NFREE  =      0    steps in history (QN), initial steepest desc. (CG)
   ISIF   =      2    stress and relaxation
   IWAVPR =     10    prediction:  0-non 1-charg 2-wave 3-comb
   ISYM   =      2    0-nonsym 1-usesym 2-fastsym
   LCORR  =      T    Harris-Foulkes like correction to forces

   POTIM  = 0.5000    time-step for ionic-motion
   TEIN   =    0.0    initial temperature
   TEBEG  =    0.0;   TEEND  =   0.0 temperature during run
   SMASS  =  -3.00    Nose mass-parameter (am)
   estimated Nose-frequenzy (Omega)   =  0.10E-29 period in steps =****** mass=  -0.423E-27a.u.
   SCALEE = 1.0000    scale energy and forces
   NPACO  =    256;   APACO  = 16.0  distance and # of slots for P.C.
   PSTRESS=    0.0 pullay stress

  Mass of Ions in am
   POMASS =  69.72208.98 74.92
  Ionic Valenz
   ZVAL   =   3.00 15.00  5.00
  Atomic Wigner-Seitz radii
  virtual crystal weights
   VCA    =   1.00  1.00  1.00
   NELECT =      26.0000    total number of electrons
   NUPDOWN=      -1.0000    fix difference up-down

 DOS related values:
   EMIN   =  10.00;   EMAX   =-10.00  energy-range for DOS
   EFERMI =   0.00
   ISMEAR =     0;   SIGMA  =   0.05  broadening in eV -4-tet -1-fermi 0-gaus

 Electronic relaxation 2 (details)
   IALGO  =     38    algorithm
   LDIAG  =      T    sub-space diagonalisation (order eigenvalues)
   LSUBROT=      F    optimize rotation matrix (better conditioning)
   TURBO    =      0    0=normal 1=particle mesh
   IRESTART =      0    0=no restart 2=restart with 2 vectors
   NREBOOT  =      0    no. of reboots
   NMIN     =      0    reboot dimension
   EREF     =   0.00    reference energy to select bands
   IMIX   =      4    mixing-type and parameters
     AMIX     =   0.40;   BMIX     =  1.00
     AMIX_MAG =   1.60;   BMIX_MAG =  1.00
     AMIN     =   0.10
     WC   =   100.;   INIMIX=   1;  MIXPRE=   1;  MAXMIX= -45

 Intra band minimization:
   WEIMIN = 0.0000     energy-eigenvalue tresh-hold
   EBREAK =  0.63E-07  absolut break condition
   DEPER  =   0.30     relativ break condition

   TIME   =   0.40     timestep for ELM

  volume/ion in A,a.u.               =      28.41       191.73
  Fermi-wavevector in a.u.,A,eV,Ry     =   1.001267  1.892120 13.640326  1.002536
  Thomas-Fermi vector in A             =   2.133678

 Write flags
   LWAVE        =      F    write WAVECAR
   LDOWNSAMPLE  =      F    k-point downsampling of WAVECAR
   LCHARG       =      F    write CHGCAR
   LVTOT        =      F    write LOCPOT, total local potential
   LVHAR        =      F    write LOCPOT, Hartree potential only
   LELF         =      F    write electronic localiz. function (ELF)
   LORBIT       =      0    0 simple, 1 ext, 2 COOP (PROOUT), +10 PAW based schemes

 Dipole corrections
   LMONO  =      F    monopole corrections only (constant potential shift)
   LDIPOL =      F    correct potential (dipole corrections)
   IDIPOL =      0    1-x, 2-y, 3-z, 4-all directions
   EPSILON=  1.0000000 bulk dielectric constant

 Exchange correlation treatment:
   GGA     =    --    GGA type
   VOSKOWN=      0    Vosko Wilk Nusair interpolation
   LHFCALC =     F    Hartree Fock is set to
   LHFONE  =     F    Hartree Fock one center treatment
   AEXX    =    0.0000 exact exchange contribution

 Linear response parameters
   LEPSILON=     F    determine dielectric tensor
   LRPA    =     F    only Hartree local field effects (RPA)
   LNABLA  =     F    use nabla operator in PAW spheres
   LVEL    =     F    velocity operator in full k-point grid
   LINTERFAST=   F  fast interpolation
   KINTER  =     0    interpolate to denser k-point grid
   CSHIFT  =0.1000    complex shift for real part using Kramers Kronig
   OMEGAMAX=  -1.0    maximum frequency
   DEG_THRESHOLD= 0.2000000E-02 threshold for treating states as degnerate
   RTIME   =   -0.100 relaxation time in fs
  (WPLASMAI=    0.000 imaginary part of plasma frequency in eV, 0.658/RTIME)
   DFIELD  = 0.0000000 0.0000000 0.0000000 field for delta impulse in time

 Orbital magnetization related:
   ORBITALMAG=     F  switch on orbital magnetization
   LCHIMAG   =     F  perturbation theory with respect to B field
   DQ        =  0.001000  dq finite difference perturbation B field
   LLRAUG    =     F  two centre corrections for induced B field

 Static calculation
 charge density and potential will be updated during run
 non collinear spin polarized calculation
 Variant of blocked Davidson
 Davidson routine will perform the subspace rotation
 perform sub-space diagonalisation
    after iterative eigenvector-optimisation
 modified Broyden-mixing scheme, WC =      100.0
 initial mixing is a Kerker type mixing with AMIX =  0.4000 and BMIX =      1.0000
 Hartree-type preconditioning will be used
 using additional bands           27
 reciprocal scheme for non local part
 use partial core corrections
 calculate Harris-corrections to forces
   (improved forces if not selfconsistent)
 use gradient corrections
 use of overlap-Matrix (Vanderbilt PP)
 Gauss-broadening in eV      SIGMA  =   0.05

  energy-cutoff  :      500.00
  volume of cell :      113.64
      direct lattice vectors                 reciprocal lattice vectors
     4.300140858  0.000000000  0.000000000     0.232550522  0.000000000  0.000000000
     0.000000000  4.300140858  0.000000000     0.000000000  0.232550522  0.000000000
     0.000000000  0.000000000  6.145861149     0.000000000  0.000000000  0.162711128

  length of vectors
     4.300140858  4.300140858  6.145861149     0.232550522  0.232550522  0.162711128

 old parameters found on file WAVECAR:
  energy-cutoff  :      500.00
  volume of cell :      113.64
      direct lattice vectors                 reciprocal lattice vectors
     4.300140858  0.000000000  0.000000000     0.232550522  0.000000000  0.000000000
     0.000000000  4.300140858  0.000000000     0.000000000  0.232550522  0.000000000
     0.000000000  0.000000000  6.145861149     0.000000000  0.000000000  0.162711128

  length of vectors

 k-points in units of 2pi/SCALE and weight: K-points alon1g high symmetry lines
   0.11627526  0.11627526  0.00000000       0.014
   0.11295311  0.11295311  0.00000000       0.014
   0.10963096  0.10963096  0.00000000       0.014
   0.10630881  0.10630881  0.00000000       0.014
[...]
 k-point  7 :   0.4143 0.4143 0.0000  plane waves:    5770
 k-point  8 :   0.4000 0.4000 0.0000  plane waves:    5754
 k-point  9 :   0.3857 0.3857 0.0000  plane waves:    5750
 k-point 10 :   0.3714 0.3714 0.0000  plane waves:    5750
 k-point 11 :   0.3571 0.3571 0.0000  plane waves:    5750
 k-point 12 :   0.3429 0.3429 0.0000  plane waves:    5766
 k-point 13 :   0.3286 0.3286 0.0000  plane waves:    5770
 k-point 14 :   0.3143 0.3143 0.0000  plane waves:    5774
 k-point 15 :   0.3000 0.3000 0.0000  plane waves:    5770
 k-point 16 :   0.2857 0.2857 0.0000  plane waves:    5778
 k-point 17 :   0.2714 0.2714 0.0000  plane waves:    5778
 k-point 18 :   0.2571 0.2571 0.0000  plane waves:    5774
 k-point 19 :   0.2429 0.2429 0.0000  plane waves:    5766
 k-point 20 :   0.2286 0.2286 0.0000  plane waves:    5766
 k-point 21 :   0.2143 0.2143 0.0000  plane waves:    5766
 k-point 22 :   0.2000 0.2000 0.0000  plane waves:    5754
 k-point 23 :   0.1857 0.1857 0.0000  plane waves:    5742
 k-point 24 :   0.1714 0.1714 0.0000  plane waves:    5754
 k-point 25 :   0.1571 0.1571 0.0000  plane waves:    5742
 k-point 26 :   0.1429 0.1429 0.0000  plane waves:    5766
 k-point 27 :   0.1286 0.1286 0.0000  plane waves:    5758
 k-point 28 :   0.1143 0.1143 0.0000  plane waves:    5754
 k-point 29 :   0.1000 0.1000 0.0000  plane waves:    5754
 k-point 30 :   0.0857 0.0857 0.0000  plane waves:    5754
 k-point 31 :   0.0714 0.0714 0.0000  plane waves:    5778
 k-point 32 :   0.0571 0.0571 0.0000  plane waves:    5762
 k-point 33 :   0.0429 0.0429 0.0000  plane waves:    5750
 k-point 34 :   0.0286 0.0286 0.0000  plane waves:    5762
 k-point 35 :   0.0143 0.0143 0.0000  plane waves:    5774
 k-point 36 :   0.0000 0.0000 0.0000  plane waves:    5758
 k-point 37 :   0.0000 0.0000 0.0000  plane waves:    5758
 k-point 38 :   0.0000 0.0000 0.0143  plane waves:    5758
 k-point 39 :   0.0000 0.0000 0.0286  plane waves:    5766
 k-point 40 :   0.0000 0.0000 0.0429  plane waves:    5766
 k-point 41 :   0.0000 0.0000 0.0571  plane waves:    5774
 k-point 42 :   0.0000 0.0000 0.0714  plane waves:    5758
 k-point 43 :   0.0000 0.0000 0.0857  plane waves:    5758
 k-point 44 :   0.0000 0.0000 0.1000  plane waves:    5758
 k-point 45 :   0.0000 0.0000 0.1143  plane waves:    5750
 k-point 46 :   0.0000 0.0000 0.1286  plane waves:    5750
 k-point 47 :   0.0000 0.0000 0.1429  plane waves:    5750
 k-point 48 :   0.0000 0.0000 0.1571  plane waves:    5734
 k-point 49 :   0.0000 0.0000 0.1714  plane waves:    5750
 k-point 50 :   0.0000 0.0000 0.1857  plane waves:    5750
 k-point 51 :   0.0000 0.0000 0.2000  plane waves:    5750
 k-point 52 :   0.0000 0.0000 0.2143  plane waves:    5740
 k-point 53 :   0.0000 0.0000 0.2286  plane waves:    5740
 k-point 54 :   0.0000 0.0000 0.2429  plane waves:    5748
 k-point 55 :   0.0000 0.0000 0.2571  plane waves:    5732
 k-point 56 :   0.0000 0.0000 0.2714  plane waves:    5748
 k-point 57 :   0.0000 0.0000 0.2857  plane waves:    5748
 k-point 58 :   0.0000 0.0000 0.3000  plane waves:    5748
 k-point 59 :   0.0000 0.0000 0.3143  plane waves:    5748
 k-point 60 :   0.0000 0.0000 0.3286  plane waves:    5748
 k-point 61 :   0.0000 0.0000 0.3429  plane waves:    5764
 k-point 62 :   0.0000 0.0000 0.3571  plane waves:    5756
 k-point 63 :   0.0000 0.0000 0.3714  plane waves:    5788
 k-point 64 :   0.0000 0.0000 0.3857  plane waves:    5804
 k-point 65 :   0.0000 0.0000 0.4000  plane waves:    5788
 k-point 66 :   0.0000 0.0000 0.4143  plane waves:    5788
 k-point 67 :   0.0000 0.0000 0.4286  plane waves:    5780
 k-point 68 :   0.0000 0.0000 0.4429  plane waves:    5780
 k-point 69 :   0.0000 0.0000 0.4571  plane waves:    5772
 k-point 70 :   0.0000 0.0000 0.4714  plane waves:    5772
 k-point 71 :   0.0000 0.0000 0.4857  plane waves:    5772
 k-point 72 :   0.0000 0.0000 0.5000  plane waves:    5772

 maximum and minimum number of plane-waves per node :       764      688

 maximum number of plane-waves:      5804
 maximum index in each direction:
   IXMAX=    7   IYMAX=    7   IZMAX=   11
   IXMIN=   -8   IYMIN=   -8   IZMIN=  -11

 parallel 3D FFT for wavefunctions:
    minimum data exchange during FFTs selected (reduces bandwidth)
 parallel 3D FFT for charge:
    minimum data exchange during FFTs selected (reduces bandwidth)

 Broyden mixing: mesh for mixing (old mesh)
   NGX = 15   NGY = 15   NGZ = 23
  (NGX  = 64   NGY  = 64   NGZ  = 96)
  gives a total of   5175 points

 initial charge density was supplied:
 charge density of overlapping atoms calculated
 number of electron      26.0000000 magnetization       4.0000000      4.0000000      4.0000000
 keeping initial charge density in first step

 Maximum index for augmentation-charges         1186 (set IRDMAX)

 First call to EWALD:  gamma=   0.366
 Maximum number of real-space cells 3x 3x 2
 Maximum number of reciprocal cells 2x 2x 3

--------------------------------------- Iteration      1(   1)  ---------------------------------------

 eigenvalue-minimisations  :  8416
 total energy-change (2. order) :-0.4268687E+01  (-0.2522125E+02)
 number of electron      26.0000008 magnetization       1.1994930      1.1972407      1.2436958
 augmentation part        4.1270322 magnetization       0.5841494      0.5814290      0.5723941

 Broyden mixing:
  rms(total) = 0.12474E+01    rms(broyden)= 0.12474E+01
  rms(prec ) = 0.13539E+01
  weight for this iteration     100.00

 Free energy of the ion-electron system (eV)
  alpha Z        PSCENC =        64.20128509
  Ewald energy   TEWEN  =     -1439.91766544
  -Hartree energ DENC   =      -749.41397116
  -exchange      EXHF   =         0.00000000
  -V(xc)+E(xc)   XCENC  =        -0.63881372
  PAW double counting   =      1945.46521363    -1846.94975616
  entropy T*S    EENTRO =        -0.00217011
  eigenvalues    EBANDS =      -224.13603062
  atomic energy  EATOM  =      2247.12322143
  Solvation  Ediel_sol  =         0.00000000
  free energy    TOTEN  =        -4.26868707 eV

  energy without entropy =       -4.26651695  energy(sigma->0) =       -4.26760201

[...]

 eigenvalues of (default mixing * dielectric matrix)
  average eigenvalue GAMMA=   0.8231
  0.8231

[...]

 Broyden mixing:
  rms(total) = 0.81443E-03    rms(broyden)= 0.81442E-03
  rms(prec ) = 0.10151E-02
  weight for this iteration     100.00

 eigenvalues of (default mixing * dielectric matrix)
  average eigenvalue GAMMA=   1.2730
  2.9856  2.1721  1.4817  1.0631  1.0631  0.7846  0.7147  0.5961  0.5961

[...]

--------------------------------------- Iteration      1(  11)  ---------------------------------------

 eigenvalue-minimisations  :  5912
 total energy-change (2. order) :-0.1750702E-05  (-0.2736857E-05)
 number of electron      26.0000008 magnetization       0.0031589      0.0031420     -0.0010972
 augmentation part        3.8452619 magnetization       0.0032972      0.0033030     -0.0004204

 Free energy of the ion-electron system (eV)
  alpha Z        PSCENC =        64.20128509
  Ewald energy   TEWEN  =     -1439.91766544
  -Hartree energ DENC   =      -759.64373462
  -exchange      EXHF   =         0.00000000
  -V(xc)+E(xc)   XCENC  =        -0.68662194
  PAW double counting   =      2429.39297194    -2336.44731137
  entropy T*S    EENTRO =        -0.00187144
  eigenvalues    EBANDS =      -214.89536017
  atomic energy  EATOM  =      2247.12322143
  Solvation  Ediel_sol  =         0.00000000
  free energy    TOTEN  =       -10.87508653 eV

  energy without entropy =      -10.87321508  energy(sigma->0) =      -10.87415081

 average (electrostatic) potential at core
  the test charge radii are     1.2767  1.0856  1.0621
  (the norm of the test charge is              1.0000)
       1 -14.4132       2 -14.4132       3-106.8981       4 -50.8415

 E-fermi :   3.6687     XC(G=0):  -8.6044     alpha+bet : -8.3023

 k-point     1 :       0.5000    0.5000    0.0000
  band No.  band energies     occupation
      1     -20.6396      1.00000
      2     -20.6389      1.00000
      3     -20.5631      1.00000
      4     -20.5619      1.00000
      5     -17.6955      1.00000
      6     -17.6948      1.00000
      7     -17.6618      1.00000
      8     -17.6608      1.00000
      9     -17.5898      1.00000
     10     -17.5895      1.00000
     11      -7.1036      1.00000
     12      -7.0960      1.00000
     13      -7.0798      1.00000
     14      -7.0650      1.00000
     15      -3.4613      1.00000
     16      -3.4585      1.00000
     17      -3.3282      1.00000
     18      -3.3267      1.00000
     19       0.2488      1.00000
     20       0.2545      1.00000
     21       0.5378      1.00000
     22       0.5448      1.00000
     23       0.9271      1.00000
     24       0.9339      1.00000
     25       1.1842      1.00000
     26       1.1963      1.00000
     27       4.0039      0.00000
     28       4.0258      0.00000
     29       4.3140      0.00000
     30       4.3168      0.00000
     31       4.4841      0.00000
     32       4.4872      0.00000
     33       4.7523      0.00000
     34       4.7589      0.00000
     35      11.0953      0.00000
     36      11.1009      0.00000
     37      11.3048      0.00000
     38      11.3151      0.00000
     39      11.3882      0.00000
     40      11.3931      0.00000

[...]

 k-point    72 :       0.0000    0.0000    0.5000
  band No.  band energies     occupation
      1     -20.6376      1.00000
      2     -20.6369      1.00000
      3     -20.5695      1.00000
      4     -20.5682      1.00000
      5     -17.6930      1.00000
      6     -17.6922      1.00000
      7     -17.6639      1.00000
      8     -17.6627      1.00000
      9     -17.6000      1.00000
     10     -17.5995      1.00000
     11      -8.2815      1.00000
     12      -8.2786      1.00000
     13      -8.1738      1.00000
     14      -8.1650      1.00000
     15      -1.3196      1.00000
     16      -1.3162      1.00000
     17      -1.2062      1.00000
     18      -1.2042      1.00000
     19       1.1308      1.00000
     20       1.1385      1.00000
     21       1.2371      1.00000
     22       1.2429      1.00000
     23       1.6144      1.00000
     24       1.6154      1.00000
     25       2.5628      1.00000
     26       2.5665      1.00000
     27       4.3361      0.00000
     28       4.3400      0.00000
     29       4.8794      0.00000
     30       4.8878      0.00000
     31       5.6239      0.00000
     32       5.6328      0.00000
     33       5.9755      0.00000
     34       5.9970      0.00000
     35       8.5530      0.00000
     36       8.5591      0.00000
     37       8.7061      0.00000
     38       8.7148      0.00000
     39       8.9142      0.00000
     40       8.9177      0.00000

 soft charge-density along one line, spin component           1
         0         1         2         3         4         5         6         7         8         9
 total charge-density along one line

[...]

 soft charge-density along one line, spin component           4
         0         1         2         3         4         5         6         7         8         9
 total charge-density along one line

------------------------ aborting loop because EDIFF is reached ----------------------------------------

  FORCE on cell =-STRESS in cart. coord.  units (eV):
  Direction    XX          YY          ZZ          XY          YZ          ZX
  Alpha Z    64.20129    64.20129    64.20129
  Ewald    -439.74121  -439.74123  -560.43629     0.00000     0.00000    -0.00000
  Hartree   292.23598   292.23596   175.16410    -0.58504    -0.01222    -0.01216
  E(xc)    -113.90242  -113.90242  -113.29405     0.09330     0.00070     0.00070
  Local    -328.03890  -328.03871   -80.83938     2.63033     0.03396     0.03381
  n-local   161.68056   161.68044   156.86436    -1.19750    -0.01004    -0.01001
  augment   137.47540   137.47547   139.31488     0.31898     0.00042     0.00041
  Kinetic   235.49698   235.49701   224.34960    -3.21543    -0.01242    -0.01243
  Fock        0.00000     0.00000     0.00000     0.00000     0.00000     0.00000
  Total       9.40768     9.40780     5.32451    -1.95535     0.00041     0.00032
  in kB     132.63096   132.63270    75.06577   -27.56685     0.00579     0.00448

 VOLUME and BASIS-vectors are now :
  energy-cutoff  :      500.00
  volume of cell :      113.64
      direct lattice vectors                 reciprocal lattice vectors
     4.300140858  0.000000000  0.000000000     0.232550522  0.000000000  0.000000000
     0.000000000  4.300140858  0.000000000     0.000000000  0.232550522  0.000000000
     0.000000000  0.000000000  6.145861149     0.000000000  0.000000000  0.162711128

  length of vectors
     4.300140858  4.300140858  6.145861149     0.232550522  0.232550522  0.162711128

 FORCES acting on ions
    electron-ion (+dipol)            ewald-force                    non-local-force                 convergence-correction
   -.532E-02 0.158E-02 0.472E+02   0.261E-14 -.178E-15 -.473E+02   0.187E-02 0.113E-02 -.282E+00   -.165E-03 0.613E-04 0.245E-03
   -.156E-02 0.533E-02 -.472E+02   -.168E-14 -.547E-14 0.473E+02   -.114E-02 -.188E-02 0.282E+00   -.748E-04 0.162E-03 -.254E-03
   -.821E-03 0.840E-03 0.267E-03   -.341E-14 0.631E-14 0.425E-05   0.353E-02 -.346E-02 0.594E-04   -.151E-03 0.478E-04 -.328E-03
   0.138E-02 -.139E-02 -.790E-04   0.139E-14 0.780E-16 0.515E-06   0.238E-02 -.239E-02 0.951E-05   -.923E-04 0.104E-03 0.586E-04
   -.631E-02 0.636E-02 0.222E-03   -.109E-14 0.740E-15 -.355E-14   0.665E-02 -.659E-02 0.561E-04   -.483E-03 0.375E-03 -.279E-03

 POSITION                                       TOTAL-FORCE (eV/Angst)
      2.15007      0.00000      4.46027        -0.003569      0.002738     -0.430279
      0.00000      2.15007      1.68559        -0.002732      0.003576      0.430286
      0.00000      0.00000      0.00000         0.002592     -0.002607      0.000003
      2.15007      2.15007      3.07293         0.003709     -0.003707     -0.000010
    total drift:                               -0.000147      0.000142     -0.000001

  FREE ENERGIE OF THE ION-ELECTRON SYSTEM (eV)
  free  energy   TOTEN  =       -10.87508653 eV

  energy  without entropy=      -10.87321508  energy(sigma->0) =      -10.87415081

 Spin-Orbit-Coupling matrix elements

 Ion:    1  E_soc:     -0.0108344
 l=   1
     0.0000000    -0.0011477    -0.0030519
    -0.0011477     0.0000000    -0.0014008
    -0.0030519    -0.0014008     0.0000000
 l=   2
     0.0000000     0.0000009     0.0000000     0.0000012     0.0000049
     0.0000009     0.0000000    -0.0000429     0.0000868     0.0000260
     0.0000000    -0.0000429     0.0000000     0.0000668     0.0000000
     0.0000012     0.0000868     0.0000668     0.0000000     0.0000394
     0.0000049     0.0000260     0.0000000     0.0000394     0.0000000
 l=   3
     0.0000000     0.0000000     0.0000000     0.0000000     0.0000000     0.0000000     0.0000000
     0.0000000     0.0000000     0.0000000     0.0000000     0.0000000     0.0000000     0.0000000
     0.0000000     0.0000000     0.0000000     0.0000000     0.0000000     0.0000000     0.0000000
     0.0000000     0.0000000     0.0000000     0.0000000     0.0000000     0.0000000     0.0000000
     0.0000000     0.0000000     0.0000000     0.0000000     0.0000000     0.0000000     0.0000000
     0.0000000     0.0000000     0.0000000     0.0000000     0.0000000     0.0000000     0.0000000
     0.0000000     0.0000000     0.0000000     0.0000000     0.0000000     0.0000000     0.0000000

[...]

 Ion:    4  E_soc:     -0.0388895
 l=   1
     0.0000000    -0.0051120    -0.0092511
    -0.0051120     0.0000000    -0.0051118
    -0.0092511    -0.0051118     0.0000000
 l=   2
     0.0000000     0.0000010     0.0000000     0.0000010    -0.0000005
     0.0000010     0.0000000    -0.0000083     0.0000286     0.0000083
     0.0000000    -0.0000083     0.0000000    -0.0000083     0.0000000
     0.0000010     0.0000286    -0.0000083     0.0000000     0.0000083
    -0.0000005     0.0000083     0.0000000     0.0000083     0.0000000
 l=   3
     0.0000000     0.0000000     0.0000000     0.0000000     0.0000000     0.0000000     0.0000000
     0.0000000     0.0000000     0.0000000     0.0000000     0.0000000     0.0000000     0.0000000
     0.0000000     0.0000000     0.0000000     0.0000000     0.0000000     0.0000000     0.0000000
     0.0000000     0.0000000     0.0000000     0.0000000     0.0000000     0.0000000     0.0000000
     0.0000000     0.0000000     0.0000000     0.0000000     0.0000000     0.0000000     0.0000000
     0.0000000     0.0000000     0.0000000     0.0000000     0.0000000     0.0000000     0.0000000
     0.0000000     0.0000000     0.0000000     0.0000000     0.0000000     0.0000000     0.0000000