 vasp.5.4.4.18Apr17-6-g9f103f2a35 (build Dec 22 2021 20:15:33) complex

 executed on             LinuxIFC date 2022.06.08  14:06:36

 INCAR:
 POTCAR:    PAW_PBE Ga 08Apr2002
 POTCAR:    PAW_PBE Bi_d 06Sep2000
 POTCAR:    PAW_PBE As 22Sep2009
 POTCAR:    PAW_PBE Ga 08Apr2002
   VRHFIN =Ga: s2p1

   TITEL  = PAW_PBE Ga 08Apr2002
   POMASS =   69.723; ZVAL   =    3.000    mass and valenz
   ENMAX  =  134.678; ENMIN  =  101.009 eV

 POTCAR:    PAW_PBE Bi_d 06Sep2000
   VRHFIN =Bi:

   TITEL  = PAW_PBE Bi_d 06Sep2000
   POMASS =  208.980; ZVAL   =   15.000    mass and valenz
   ENMAX  =  242.839; ENMIN  =  182.129 eV

 POTCAR:    PAW_PBE As 22Sep2009
   VRHFIN =As: s2p3

   TITEL  = PAW_PBE As 22Sep2009
   POMASS =   74.922; ZVAL   =    5.000    mass and valenz
   ENMAX  =  208.702; ENMIN  =  156.526 eV

  PAW_PBE Ga 08Apr2002                  :
  PAW_PBE Bi_d 06Sep2000                :
  PAW_PBE As 22Sep2009                  :

 POSCAR: Ga2 Bi1 As1
  positions in direct lattice
 exchange correlation table for  LEXCH =        8
   RHO(1)=    0.500       N(1)  =     2000
   RHO(2)=  100.500       N(2)  =     4000

 ion  position               nearest neighbor table
   1  0.500  0.000  0.726-   4 2.56   4 2.56   3 2.73   3 2.73
   2  0.000  0.500  0.274-   4 2.56   4 2.56   3 2.73   3 2.73
   3  0.000  0.000  0.000-   1 2.73   1 2.73   2 2.73   2 2.73
   4  0.500  0.500  0.500-   2 2.56   2 2.56   1 2.56   1 2.56

  LATTYP: Found a simple tetragonal cell.
 ALAT       =     4.3001408577
 C/A-ratio  =     1.4292232167

  Lattice vectors:

 A1 = (   4.3001408577,   0.0000000000,   0.0000000000)
 A2 = (   0.0000000000,   4.3001408577,   0.0000000000)
 A3 = (   0.0000000000,   0.0000000000,   6.1458611488)

Analysis of symmetry for initial positions (statically):
 Subroutine PRICEL returns:
 Original cell was already a primitive cell.

 Routine SETGRP: Setting up the symmetry group for a
 simple tetragonal supercell.

 Subroutine GETGRP returns: Found  8 space group operations
 (whereof  8 operations were pure point group operations)
 out of a pool of 16 trial point group operations.

The static configuration has the point symmetry D_2d.

Analysis of symmetry for dynamics (positions and initial velocities):
 Subroutine PRICEL returns:
 Original cell was already a primitive cell.

[...]

The dynamic configuration has the point symmetry D_2d.

Analysis of structural, dynamic, and magnetic symmetry:
 Subroutine PRICEL returns:
 Original cell was already a primitive cell.

 Routine SETGRP: Setting up the symmetry group for a
 simple tetragonal supercell.

 Subroutine GETGRP returns: Found  8 space group operations
 (whereof  8 operations were pure point group operations)
 out of a pool of 16 trial point group operations.

The (compounded) configuration has the point symmetry D_2d.

 Subroutine INISYM returns: Found  8 space group operations
 (whereof  8 operations are pure point group operations),
 and found     1 'primitive' translations

 KPOINTS: K-points alon1g high symmetry lines
  interpolating k-points between supplied coordinates
  k-points in reciprocal lattice
Space group operators:
 irot       det(A)        alpha          n_x          n_y          n_z        tau_x        tau_y        tau_z
    1     1.000000     0.000001     1.000000     0.000000     0.000000     0.000000     0.000000     0.000000
    2    -1.000000    90.000000     0.000000     0.000000    -1.000000     0.000000     0.000000     0.000000
    3     1.000000   180.000000     0.000000     0.000000     1.000000     0.000000     0.000000     0.000000
    4    -1.000000    90.000000     0.000000     0.000000     1.000000     0.000000     0.000000     0.000000
    5    -1.000000   180.000000     0.000000     1.000000     0.000000     0.000000     0.000000     0.000000
    6     1.000000   180.000000     0.707107     0.707107     0.000000     0.000000     0.000000     0.000000
    7    -1.000000   180.000000     1.000000     0.000000     0.000000     0.000000     0.000000     0.000000
    8     1.000000   180.000000     0.707107    -0.707107     0.000000     0.000000     0.000000     0.000000

 SYSTEM =  Ga2BiAs
 POSCAR =  Ga2 Bi1 As1

 Startparameter for this run:
   NWRITE =      2    write-flag & timer
   PREC   = accura    normal or accurate (medium, high low for compatibility)
   ISTART =      1    job   : 0-new  1-cont  2-samecut
   ICHARG =      2    charge: 1-file 2-atom 10-const
   ISPIN  =      1    spin polarized calculation?
   LNONCOLLINEAR =      T non collinear calculations
   LSORBIT =      T    spin-orbit coupling
   INIWAV =      1    electr: 0-lowe 1-rand  2-diag
   LASPH  =      F    aspherical Exc in radial PAW
   METAGGA=      F    non-selfconsistent MetaGGA calc.

 Electronic Relaxation 1
   ENCUT  =  500.0 eV  36.75 Ry    6.06 a.u.   7.84  7.84 11.21*2*pi/ulx,y,z
   ENINI  =  500.0     initial cutoff
   ENAUG  =  462.8 eV  augmentation charge cutoff
   NELM   =     60;   NELMIN=  2; NELMDL=  0     # of ELM steps
   EDIFF  = 0.1E-05   stopping-criterion for ELM
   LREAL  =      F    real-space projection
   NLSPLINE    = F    spline interpolate recip. space projectors
   LCOMPAT=      F    compatible to vasp.4.4
   GGA_COMPAT  = T    GGA compatible to vasp.4.4-vasp.4.6
   LMAXPAW     = -100 max onsite density
   LMAXMIX     =    2 max onsite mixed and CHGCAR
   VOSKOWN=      0    Vosko Wilk Nusair interpolation
   ROPT   =    0.00000   0.00000   0.00000
 Ionic relaxation
   EDIFFG = -.1E-01   stopping-criterion for IOM
   NSW    =      0    number of steps for IOM
   NBLOCK =      1;   KBLOCK =      1    inner block; outer block
   IBRION =     -1    ionic relax: 0-MD 1-quasi-New 2-CG
   NFREE  =      0    steps in history (QN), initial steepest desc. (CG)
   ISIF   =      2    stress and relaxation
   IWAVPR =     10    prediction:  0-non 1-charg 2-wave 3-comb
   ISYM   =      2    0-nonsym 1-usesym 2-fastsym
   LCORR  =      T    Harris-Foulkes like correction to forces

   POTIM  = 0.5000    time-step for ionic-motion
   TEIN   =    0.0    initial temperature
   TEBEG  =    0.0;   TEEND  =   0.0 temperature during run
   SMASS  =  -3.00    Nose mass-parameter (am)
   estimated Nose-frequenzy (Omega)   =  0.10E-29 period in steps =****** mass=  -0.423E-27a.u.
   SCALEE = 1.0000    scale energy and forces
   NPACO  =    256;   APACO  = 16.0  distance and # of slots for P.C.
   PSTRESS=    0.0 pullay stress

  Mass of Ions in am
   POMASS =  69.72208.98 74.92
  Ionic Valenz
   ZVAL   =   3.00 15.00  5.00
  Atomic Wigner-Seitz radii
  virtual crystal weights
   VCA    =   1.00  1.00  1.00
   NELECT =      26.0000    total number of electrons
   NUPDOWN=       0.0000    fix difference up-down

 DOS related values:
   EMIN   =  10.00;   EMAX   =-10.00  energy-range for DOS
   EFERMI =   0.00
   ISMEAR =     1;   SIGMA  =   0.20  broadening in eV -4-tet -1-fermi 0-gaus

 Electronic relaxation 2 (details)
   IALGO  =     38    algorithm
   LDIAG  =      T    sub-space diagonalisation (order eigenvalues)
   LSUBROT=      F    optimize rotation matrix (better conditioning)
   TURBO    =      0    0=normal 1=particle mesh
   IRESTART =      0    0=no restart 2=restart with 2 vectors
   NREBOOT  =      0    no. of reboots
   NMIN     =      0    reboot dimension
   EREF     =   0.00    reference energy to select bands
   IMIX   =      4    mixing-type and parameters
     AMIX     =   0.40;   BMIX     =  1.00
     AMIX_MAG =   1.60;   BMIX_MAG =  1.00
     AMIN     =   0.10
     WC   =   100.;   INIMIX=   1;  MIXPRE=   1;  MAXMIX= -45

 Intra band minimization:
   WEIMIN = 0.0000     energy-eigenvalue tresh-hold
   EBREAK =  0.52E-08  absolut break condition
   DEPER  =   0.30     relativ break condition

   TIME   =   0.40     timestep for ELM

  volume/ion in A,a.u.               =      28.41       191.73
  Fermi-wavevector in a.u.,A,eV,Ry     =   1.001267  1.892120 13.640326  1.002536
  Thomas-Fermi vector in A             =   2.133678

 Write flags
   LWAVE        =      T    write WAVECAR
   LDOWNSAMPLE  =      F    k-point downsampling of WAVECAR
   LCHARG       =      T    write CHGCAR
   LVTOT        =      F    write LOCPOT, total local potential
   LVHAR        =      F    write LOCPOT, Hartree potential only
   LELF         =      F    write electronic localiz. function (ELF)
   LORBIT       =      0    0 simple, 1 ext, 2 COOP (PROOUT), +10 PAW based schemes

 Dipole corrections
   LMONO  =      F    monopole corrections only (constant potential shift)
   LDIPOL =      F    correct potential (dipole corrections)
   IDIPOL =      0    1-x, 2-y, 3-z, 4-all directions
   EPSILON=  1.0000000 bulk dielectric constant

 Exchange correlation treatment:
   GGA     =    --    GGA type
   VOSKOWN=      0    Vosko Wilk Nusair interpolation
   LHFCALC =     F    Hartree Fock is set to
   LHFONE  =     F    Hartree Fock one center treatment
   AEXX    =    0.0000 exact exchange contribution

 Linear response parameters
   LEPSILON=     F    determine dielectric tensor
   LRPA    =     F    only Hartree local field effects (RPA)
   LNABLA  =     F    use nabla operator in PAW spheres
   LVEL    =     F    velocity operator in full k-point grid
   LINTERFAST=   F  fast interpolation
   KINTER  =     0    interpolate to denser k-point grid
   CSHIFT  =0.1000    complex shift for real part using Kramers Kronig
   OMEGAMAX=  -1.0    maximum frequency
   DEG_THRESHOLD= 0.2000000E-02 threshold for treating states as degnerate
   RTIME   =   -0.100 relaxation time in fs
  (WPLASMAI=    0.000 imaginary part of plasma frequency in eV, 0.658/RTIME)
   DFIELD  = 0.0000000 0.0000000 0.0000000 field for delta impulse in time

 Orbital magnetization related:
   ORBITALMAG=     F  switch on orbital magnetization
   LCHIMAG   =     F  perturbation theory with respect to B field
   DQ        =  0.001000  dq finite difference perturbation B field
   LLRAUG    =     F  two centre corrections for induced B field

 Static calculation
 charge density and potential will be updated during run
 non collinear spin polarized calculation
 Variant of blocked Davidson
 Davidson routine will perform the subspace rotation
 perform sub-space diagonalisation
    after iterative eigenvector-optimisation
 modified Broyden-mixing scheme, WC =      100.0
 initial mixing is a Kerker type mixing with AMIX =  0.4000 and BMIX =      1.0000
 Hartree-type preconditioning will be used
 using additional bands           35
 reciprocal scheme for non local part
 use partial core corrections
 calculate Harris-corrections to forces
   (improved forces if not selfconsistent)
 use gradient corrections
 use of overlap-Matrix (Vanderbilt PP)
 Methfessel and Paxton  Order N= 1 SIGMA  =   0.20

  energy-cutoff  :      500.00
  volume of cell :      113.64
      direct lattice vectors                 reciprocal lattice vectors
     4.300140858  0.000000000  0.000000000     0.232550522  0.000000000  0.000000000
     0.000000000  4.300140858  0.000000000     0.000000000  0.232550522  0.000000000
     0.000000000  0.000000000  6.145861149     0.000000000  0.000000000  0.162711128

  length of vectors
[...]
   0.00000000  0.00000000  0.39583333       0.040
   0.00000000  0.00000000  0.41666667       0.040
   0.00000000  0.00000000  0.43750000       0.040
   0.00000000  0.00000000  0.45833333       0.040
   0.00000000  0.00000000  0.47916667       0.040
   0.00000000  0.00000000  0.50000000       0.040

 position of ions in fractional coordinates (direct lattice)
   0.50000000  0.00000000  0.72573602
   0.00000000  0.50000000  0.27426400
   0.00000000  0.00000000  0.00000000
   0.50000000  0.50000000  0.50000000

 position of ions in cartesian coordinates  (Angst):
   2.15007043  0.00000000  4.46027279
   0.00000000  2.15007043  1.68558848
   0.00000000  0.00000000  0.00000000
   2.15007043  2.15007043  3.07293057

 Euler angles ALPHA=     0.0000000  BETA=     0.0000000

 transformation matrix from SAXIS to cartesian coordinates
     1.0000000 m_x     0.0000000 m_y     0.0000000 m_z
     0.0000000 m_x     1.0000000 m_y     0.0000000 m_z
     0.0000000 m_x     0.0000000 m_y     1.0000000 m_z

 transformation matrix from cartesian coordinates to SAXIS
     1.0000000 m_x     0.0000000 m_y     0.0000000 m_z
     0.0000000 m_x     1.0000000 m_y     0.0000000 m_z
     0.0000000 m_x     0.0000000 m_y     1.0000000 m_z

 k-point  1 :   0.0000 0.0000 0.0000  plane waves:    5758
 k-point  2 :   0.0000 0.0000 0.0208  plane waves:    5758
 k-point  3 :   0.0000 0.0000 0.0417  plane waves:    5766
 k-point  4 :   0.0000 0.0000 0.0625  plane waves:    5774
 k-point  5 :   0.0000 0.0000 0.0833  plane waves:    5758
 k-point  6 :   0.0000 0.0000 0.1042  plane waves:    5758
 k-point  7 :   0.0000 0.0000 0.1250  plane waves:    5750
 k-point  8 :   0.0000 0.0000 0.1458  plane waves:    5734
 k-point  9 :   0.0000 0.0000 0.1667  plane waves:    5750
 k-point 10 :   0.0000 0.0000 0.1875  plane waves:    5750
 k-point 11 :   0.0000 0.0000 0.2083  plane waves:    5748
 k-point 12 :   0.0000 0.0000 0.2292  plane waves:    5740
 k-point 13 :   0.0000 0.0000 0.2500  plane waves:    5748
 k-point 14 :   0.0000 0.0000 0.2708  plane waves:    5748
 k-point 15 :   0.0000 0.0000 0.2917  plane waves:    5748
 k-point 16 :   0.0000 0.0000 0.3125  plane waves:    5748
 k-point 17 :   0.0000 0.0000 0.3333  plane waves:    5748
 k-point 18 :   0.0000 0.0000 0.3542  plane waves:    5756
 k-point 19 :   0.0000 0.0000 0.3750  plane waves:    5788
 k-point 20 :   0.0000 0.0000 0.3958  plane waves:    5804
 k-point 21 :   0.0000 0.0000 0.4167  plane waves:    5788
 k-point 22 :   0.0000 0.0000 0.4375  plane waves:    5780
 k-point 23 :   0.0000 0.0000 0.4583  plane waves:    5772
 k-point 24 :   0.0000 0.0000 0.4792  plane waves:    5772
 k-point 25 :   0.0000 0.0000 0.5000  plane waves:    5772

 maximum and minimum number of plane-waves per node :       750      700

 maximum number of plane-waves:      5804
 maximum index in each direction:
   IXMAX=    7   IYMAX=    7   IZMAX=   11
   IXMIN=   -7   IYMIN=   -7   IZMIN=  -11

 parallel 3D FFT for wavefunctions:
    minimum data exchange during FFTs selected (reduces bandwidth)
 parallel 3D FFT for charge:
    minimum data exchange during FFTs selected (reduces bandwidth)

 Broyden mixing: mesh for mixing (old mesh)
   NGX = 15   NGY = 15   NGZ = 23
  (NGX  = 64   NGY  = 64   NGZ  = 96)
  gives a total of   5175 points

 initial charge density was supplied:
 charge density of overlapping atoms calculated
 number of electron      26.0000000 magnetization       0.0000000      0.0000000      0.0000000
 keeping initial charge density in first step

 Maximum index for augmentation-charges         1186 (set IRDMAX)

 First call to EWALD:  gamma=   0.366
 Maximum number of real-space cells 3x 3x 2
 Maximum number of reciprocal cells 2x 2x 3

--------------------------------------- Iteration      1(   1)  ---------------------------------------

 eigenvalue-minimisations  :  3568
 total energy-change (2. order) :-0.2892527E+01  (-0.1836717E+02)
 number of electron      26.0000008 magnetization       0.0000000      0.0000000      0.0000000
 augmentation part        4.1121746 magnetization       0.0000000      0.0000000      0.0000000

 Broyden mixing:
  rms(total) = 0.10227E+01    rms(broyden)= 0.10227E+01
  rms(prec ) = 0.11895E+01
  weight for this iteration     100.00

 Free energy of the ion-electron system (eV)
  alpha Z        PSCENC =        64.20128509
  Ewald energy   TEWEN  =     -1439.91766544
  -Hartree energ DENC   =      -749.41397116
  -exchange      EXHF   =         0.00000000
  -V(xc)+E(xc)   XCENC  =        -1.78998093
  PAW double counting   =      1946.54768464    -1848.13466328
  entropy T*S    EENTRO =        -0.00925959
  eigenvalues    EBANDS =      -221.49917744
  atomic energy  EATOM  =      2247.12322143
  Solvation  Ediel_sol  =         0.00000000
  free energy    TOTEN  =        -2.89252668 eV

  energy without entropy =       -2.88326709  energy(sigma->0) =       -2.88944015

[...]

 eigenvalues of (default mixing * dielectric matrix)
  average eigenvalue GAMMA=   0.9297
  0.9297

[...]

 eigenvalue-minimisations  :  3120
 total energy-change (2. order) : 0.4057818E-02  (-0.1186620E+00)
 number of electron      26.0000008 magnetization       0.0000000     -0.0000000      0.0000000
 augmentation part        3.7799048 magnetization       0.0000000     -0.0000000      0.0000000

[...]

 eigenvalue-minimisations  :  2880
 total energy-change (2. order) : 0.4926424E-02  (-0.1695627E-01)
 number of electron      26.0000008 magnetization       0.0000000     -0.0000000      0.0000000
 augmentation part        3.7955788 magnetization       0.0000000     -0.0000000      0.0000000

[...]

 Broyden mixing:
  rms(total) = 0.41976E-03    rms(broyden)= 0.41976E-03
  rms(prec ) = 0.49513E-03
  weight for this iteration     100.00

 eigenvalues of (default mixing * dielectric matrix)
  average eigenvalue GAMMA=   1.5074
  2.9927  2.7181  1.8356  1.7317  1.0448  1.0448  0.9522  0.6256  0.6207

[...]

--------------------------------------- Iteration      1(  11)  ---------------------------------------

 eigenvalue-minimisations  :  2056
 total energy-change (2. order) :-0.3249570E-06  (-0.4211814E-07)
 number of electron      26.0000008 magnetization       0.0000000      0.0000000     -0.0000000
 augmentation part        3.8006981 magnetization       0.0000000      0.0000000     -0.0000000

 Free energy of the ion-electron system (eV)
  alpha Z        PSCENC =        64.20128509
  Ewald energy   TEWEN  =     -1439.91766544
  -Hartree energ DENC   =      -762.93199202
  -exchange      EXHF   =         0.00000000
  -V(xc)+E(xc)   XCENC  =        -0.47931837
  PAW double counting   =      2441.86345994    -2349.87621359
  entropy T*S    EENTRO =        -0.00973443
  eigenvalues    EBANDS =      -206.90922309
  atomic energy  EATOM  =      2247.12322143
  Solvation  Ediel_sol  =         0.00000000
  free energy    TOTEN  =        -6.93618050 eV

  energy without entropy =       -6.92644607  energy(sigma->0) =       -6.93293569

 average (electrostatic) potential at core
  the test charge radii are     1.2767  1.0856  1.0621
  (the norm of the test charge is              1.0000)
       1 -14.3069       2 -14.3069       3-106.6634       4 -50.4246

 E-fermi :   3.7683     XC(G=0):  -8.5171     alpha+bet : -8.3023

 k-point     1 :       0.0000    0.0000    0.0000
  band No.  band energies     occupation
      1     -20.4723      1.00000
      2     -20.4723      1.00000
      3     -20.3098      1.00000
      4     -20.3098      1.00000
      5     -17.5354      1.00000
      6     -17.5354      1.00000
      7     -17.4679      1.00000
      8     -17.4679      1.00000
      9     -17.3237      1.00000
     10     -17.3237      1.00000
     11      -8.7888      1.00000
     12      -8.7888      1.00000
     13      -6.9379      1.00000
     14      -6.9379      1.00000
     15      -3.3558      1.00000
     16      -3.3558      1.00000
     17       0.6089      1.00000
     18       0.6089      1.00000
     19       0.9486      1.00000
     20       0.9486      1.00000
     21       2.1985      1.00000
     22       2.1985      1.00000
     23       2.5198      1.00000
     24       2.5198      1.00000
     25       3.6266      0.96279
     26       3.6266      0.96279
     27       3.8879      0.08084
     28       3.8879      0.08084
     29       4.5331     -0.00000
     30       4.5331     -0.00000
     31       4.5945     -0.00000
     32       4.5945     -0.00000
     33       6.2303     -0.00000
     34       6.2303     -0.00000
     35       6.4345     -0.00000
     36       6.4345     -0.00000
     37       6.6308     -0.00000
     38       6.6308     -0.00000
     39       9.1750     -0.00000
     40       9.1750     -0.00000
     41      11.4665      0.00000
     42      11.4665      0.00000
     43      11.8867      0.00000
     44      11.8867      0.00000
     45      12.3754      0.00000
     46      12.3754      0.00000
     47      12.4007      0.00000
     48      12.4007      0.00000

[...]

 k-point    25 :       0.0000    0.0000    0.5000
  band No.  band energies     occupation
      1     -20.4723      1.00000
      2     -20.4723      1.00000
      3     -20.3098      1.00000
      4     -20.3098      1.00000
      5     -17.5352      1.00000
      6     -17.5352      1.00000
      7     -17.4680      1.00000
      8     -17.4680      1.00000
      9     -17.3238      1.00000
     10     -17.3238      1.00000
     11      -8.1883      1.00000
     12      -8.1883      1.00000
     13      -7.9704      1.00000
     14      -7.9704      1.00000
     15      -1.2280      1.00000
     16      -1.2280      1.00000
     17      -1.1018      1.00000
     18      -1.1018      1.00000
     19       1.3173      1.00000
     20       1.3173      1.00000
     21       1.4147      1.00000
     22       1.4147      1.00000
     23       1.6754      1.00000
     24       1.6754      1.00000
     25       2.6099      1.00000
     26       2.6099      1.00000
     27       4.4755     -0.00000
     28       4.4755     -0.00000
     29       4.9924     -0.00000
     30       4.9924     -0.00000
     31       5.7297     -0.00000
     32       5.7297     -0.00000
     33       6.0754     -0.00000
     34       6.0754     -0.00000
     35       8.6492     -0.00000
     36       8.6492     -0.00000
     37       8.8096     -0.00000
     38       8.8096     -0.00000
     39       9.0149     -0.00000
     40       9.0149     -0.00000
     41       9.3755      0.00000
     42       9.3755      0.00000
     43       9.5356      0.00000
     44       9.5356      0.00000
     45      10.1680      0.00000
     46      10.1680      0.00000
     47      11.8095      0.00000
     48      11.8095      0.00000

 soft charge-density along one line, spin component           1
         0         1         2         3         4         5         6         7         8         9
 total charge-density along one line

[...]

 soft charge-density along one line, spin component           4
         0         1         2         3         4         5         6         7         8         9
 total charge-density along one line

------------------------ aborting loop because EDIFF is reached ----------------------------------------

  FORCE on cell =-STRESS in cart. coord.  units (eV):
  Direction    XX          YY          ZZ          XY          YZ          ZX
  Alpha Z    64.20129    64.20129    64.20129
  Ewald    -439.74121  -439.74123  -560.43629     0.00000     0.00000    -0.00000
  Hartree   293.72817   293.72817   175.48211    -0.00000    -0.00000    -0.00000
  E(xc)    -114.61971  -114.61971  -113.07446     0.00000     0.00000     0.00000
  Local    -335.90777  -335.90775   -72.24868    -0.00000    -0.00000     0.00000
  n-local   167.12376   167.12376   153.92202     0.00001     0.00001     0.00001
  augment   136.26511   136.26511   140.79855    -0.00000     0.00000    -0.00000
  Kinetic   246.29039   246.29039   216.39153    -0.00002    -0.00002    -0.00002
  Fock        0.00000     0.00000     0.00000     0.00000     0.00000     0.00000
  Total      17.34003    17.34003     5.03606     0.00000     0.00000     0.00000
  in kB     244.46248   244.46248    70.99924     0.00000     0.00000     0.00000

 VOLUME and BASIS-vectors are now :
  energy-cutoff  :      500.00
  volume of cell :      113.64
      direct lattice vectors                 reciprocal lattice vectors
     4.300140858  0.000000000  0.000000000     0.232550522  0.000000000  0.000000000
     0.000000000  4.300140858  0.000000000     0.000000000  0.232550522  0.000000000
     0.000000000  0.000000000  6.145861149     0.000000000  0.000000000  0.162711128

  length of vectors
     4.300140858  4.300140858  6.145861149     0.232550522  0.232550522  0.162711128

 FORCES acting on ions
    electron-ion (+dipol)            ewald-force                    non-local-force                 convergence-correction
   -.784E-14 -.918E-14 0.469E+02   0.261E-14 -.178E-15 -.473E+02   0.000E+00 0.331E-23 -.280E+00   0.400E-14 -.697E-15 0.523E-04
   -.164E-14 0.141E-13 -.469E+02   -.168E-14 -.547E-14 0.473E+02   0.000E+00 0.750E-24 0.280E+00   0.430E-14 -.745E-15 -.523E-04
   -.171E-13 -.840E-14 0.772E-06   -.341E-14 0.631E-14 0.425E-05   0.000E+00 -.662E-23 0.000E+00   -.336E-13 0.934E-14 -.351E-07
   0.136E-13 0.504E-13 0.101E-06   0.139E-14 0.780E-16 0.515E-06   0.000E+00 0.000E+00 0.000E+00   -.347E-16 0.892E-15 0.963E-08
   -.130E-13 0.469E-13 0.419E-06   -.109E-14 0.740E-15 -.355E-14   0.000E+00 -.256E-23 0.555E-16   -.254E-13 0.879E-14 -.238E-07

 POSITION                                       TOTAL-FORCE (eV/Angst)
      2.15007      0.00000      4.46027        -0.000000      0.000000     -0.740383
      0.00000      2.15007      1.68559        -0.000000      0.000000      0.740383
      0.00000      0.00000      0.00000        -0.000000      0.000000      0.000000
      2.15007      2.15007      3.07293         0.000000     -0.000000      0.000000
    total drift:                               -0.000000      0.000000      0.000000

  FREE ENERGIE OF THE ION-ELECTRON SYSTEM (eV)
  free  energy   TOTEN  =        -6.93618050 eV

  energy  without entropy=       -6.92644607  energy(sigma->0) =       -6.93293569

 writing wavefunctions

 Spin-Orbit-Coupling matrix elements

 Ion:    1  E_soc:     -0.0120064
 l=   1
     0.0000000    -0.0012273    -0.0041177
    -0.0012273     0.0000000    -0.0008869
    -0.0041177    -0.0008869     0.0000000
 l=   2
     0.0000000    -0.0000005     0.0000000    -0.0000015    -0.0000041
    -0.0000005     0.0000000    -0.0000549     0.0000694     0.0000558
     0.0000000    -0.0000549     0.0000000     0.0000843     0.0000000
    -0.0000015     0.0000694     0.0000843     0.0000000     0.0000801
    -0.0000041     0.0000558     0.0000000     0.0000801     0.0000000
 l=   3
     0.0000000     0.0000000     0.0000000     0.0000000     0.0000000     0.0000000     0.0000000
     0.0000000     0.0000000     0.0000000     0.0000000     0.0000000     0.0000000     0.0000000
     0.0000000     0.0000000     0.0000000     0.0000000     0.0000000     0.0000000     0.0000000
     0.0000000     0.0000000     0.0000000     0.0000000     0.0000000     0.0000000     0.0000000
     0.0000000     0.0000000     0.0000000     0.0000000     0.0000000     0.0000000     0.0000000
     0.0000000     0.0000000     0.0000000     0.0000000     0.0000000     0.0000000     0.0000000
     0.0000000     0.0000000     0.0000000     0.0000000     0.0000000     0.0000000     0.0000000

[...]

 Ion:    4  E_soc:     -0.0435266
 l=   1
     0.0000000    -0.0067641    -0.0082882
    -0.0067641     0.0000000    -0.0067641
    -0.0082882    -0.0067641     0.0000000
 l=   2
     0.0000000    -0.0000007     0.0000000    -0.0000007    -0.0000022
    -0.0000007     0.0000000    -0.0000095     0.0000521     0.0000117
     0.0000000    -0.0000095     0.0000000    -0.0000095     0.0000000
    -0.0000007     0.0000521    -0.0000095     0.0000000     0.0000117
    -0.0000022     0.0000117     0.0000000     0.0000117     0.0000000
 l=   3
     0.0000000     0.0000000     0.0000000     0.0000000     0.0000000     0.0000000     0.0000000
     0.0000000     0.0000000     0.0000000     0.0000000     0.0000000     0.0000000     0.0000000
     0.0000000     0.0000000     0.0000000     0.0000000     0.0000000     0.0000000     0.0000000
     0.0000000     0.0000000     0.0000000     0.0000000     0.0000000     0.0000000     0.0000000
     0.0000000     0.0000000     0.0000000     0.0000000     0.0000000     0.0000000     0.0000000
     0.0000000     0.0000000     0.0000000     0.0000000     0.0000000     0.0000000     0.0000000
     0.0000000     0.0000000     0.0000000     0.0000000     0.0000000     0.0000000     0.0000000