 vasp.5.4.4.18Apr17-6-g9f103f2a35 (build Dec 27 2023 19:01:38) complex

 executed on             LinuxIFC date 2024.08.31  20:10:05

 INCAR:
 POTCAR:    PAW_PBE Ga 08Apr2002
 POTCAR:    PAW_PBE Bi_d 06Sep2000
 POTCAR:    PAW_PBE As 22Sep2009
 POTCAR:    PAW_PBE Ga 08Apr2002
   VRHFIN =Ga: s2p1

   TITEL  = PAW_PBE Ga 08Apr2002
   POMASS =   69.723; ZVAL   =    3.000    mass and valenz
   ENMAX  =  134.678; ENMIN  =  101.009 eV

 POTCAR:    PAW_PBE Bi_d 06Sep2000
   VRHFIN =Bi:

   TITEL  = PAW_PBE Bi_d 06Sep2000
   POMASS =  208.980; ZVAL   =   15.000    mass and valenz
   ENMAX  =  242.839; ENMIN  =  182.129 eV

 POTCAR:    PAW_PBE As 22Sep2009
   VRHFIN =As: s2p3

   TITEL  = PAW_PBE As 22Sep2009
   POMASS =   74.922; ZVAL   =    5.000    mass and valenz
   ENMAX  =  208.702; ENMIN  =  156.526 eV

  PAW_PBE Ga 08Apr2002                  :
  PAW_PBE Bi_d 06Sep2000                :
  PAW_PBE As 22Sep2009                  :

 POSCAR: Ga2 Bi1 As1
  positions in direct lattice
 exchange correlation table for  LEXCH =        8
   RHO(1)=    0.500       N(1)  =     2000
   RHO(2)=  100.500       N(2)  =     4000

 ion  position               nearest neighbor table
   1  0.500  0.000  0.726-   4 2.56   4 2.56   3 2.73   3 2.73
   2  0.000  0.500  0.274-   4 2.56   4 2.56   3 2.73   3 2.73
   3  0.000  0.000  0.000-   1 2.73   1 2.73   2 2.73   2 2.73
   4  0.500  0.500  0.500-   2 2.56   2 2.56   1 2.56   1 2.56

  LATTYP: Found a simple tetragonal cell.
 ALAT       =     4.3001408577
 C/A-ratio  =     1.4292232167

  Lattice vectors:

 A1 = (   4.3001408577,   0.0000000000,   0.0000000000)
 A2 = (   0.0000000000,   4.3001408577,   0.0000000000)
 A3 = (   0.0000000000,   0.0000000000,   6.1458611488)

Analysis of symmetry for initial positions (statically):
 Subroutine PRICEL returns:
 Original cell was already a primitive cell.

 Routine SETGRP: Setting up the symmetry group for a
 simple tetragonal supercell.

 Subroutine GETGRP returns: Found  8 space group operations
 (whereof  8 operations were pure point group operations)
 out of a pool of 16 trial point group operations.

The static configuration has the point symmetry D_2d.

Analysis of symmetry for dynamics (positions and initial velocities):
 Subroutine PRICEL returns:
 Original cell was already a primitive cell.

 Routine SETGRP: Setting up the symmetry group for a
 simple tetragonal supercell.

 Subroutine GETGRP returns: Found  8 space group operations
 (whereof  8 operations were pure point group operations)
 out of a pool of 16 trial point group operations.

The dynamic configuration has the point symmetry D_2d.

 Subroutine INISYM returns: Found  8 space group operations
 (whereof  8 operations are pure point group operations),
 and found     1 'primitive' translations

 KPOINTS: K-points alon1g high symmetry lines
  interpolating k-points between supplied coordinates
  k-points in reciprocal lattice
Space group operators:
 irot       det(A)        alpha          n_x          n_y          n_z        tau_x        tau_y        tau_z
    1     1.000000     0.000001     1.000000     0.000000     0.000000     0.000000     0.000000     0.000000
    2    -1.000000    90.000000     0.000000     0.000000    -1.000000     0.000000     0.000000     0.000000
    3     1.000000   180.000000     0.000000     0.000000     1.000000     0.000000     0.000000     0.000000
    4    -1.000000    90.000000     0.000000     0.000000     1.000000     0.000000     0.000000     0.000000
    5    -1.000000   180.000000     0.000000     1.000000     0.000000     0.000000     0.000000     0.000000
    6     1.000000   180.000000     0.707107     0.707107     0.000000     0.000000     0.000000     0.000000
    7    -1.000000   180.000000     1.000000     0.000000     0.000000     0.000000     0.000000     0.000000
    8     1.000000   180.000000     0.707107    -0.707107     0.000000     0.000000     0.000000     0.000000

 SYSTEM =  Ga2BiAs
 POSCAR =  Ga2 Bi1 As1

 Startparameter for this run:
   NWRITE =      2    write-flag & timer
   PREC   = accura    normal or accurate (medium, high low for compatibility)
   ISTART =      1    job   : 0-new  1-cont  2-samecut
   ICHARG =      2    charge: 1-file 2-atom 10-const
   ISPIN  =      1    spin polarized calculation?
   LNONCOLLINEAR =      F non collinear calculations
   LSORBIT =      F    spin-orbit coupling
   INIWAV =      1    electr: 0-lowe 1-rand  2-diag
   LASPH  =      F    aspherical Exc in radial PAW
   METAGGA=      F    non-selfconsistent MetaGGA calc.

 Electronic Relaxation 1
   ENCUT  =  500.0 eV  36.75 Ry    6.06 a.u.   7.84  7.84 11.21*2*pi/ulx,y,z
   ENINI  =  500.0     initial cutoff
   ENAUG  =  462.8 eV  augmentation charge cutoff
   NELM   =     60;   NELMIN=  2; NELMDL=  0     # of ELM steps
   EDIFF  = 0.1E-04   stopping-criterion for ELM
   LREAL  =      F    real-space projection
   NLSPLINE    = F    spline interpolate recip. space projectors
   LCOMPAT=      F    compatible to vasp.4.4
   GGA_COMPAT  = T    GGA compatible to vasp.4.4-vasp.4.6
   LMAXPAW     = -100 max onsite density
   LMAXMIX     =    2 max onsite mixed and CHGCAR
   VOSKOWN=      0    Vosko Wilk Nusair interpolation
   ROPT   =    0.00000   0.00000   0.00000
 Ionic relaxation
   EDIFFG = -.1E-01   stopping-criterion for IOM
   NSW    =      0    number of steps for IOM
   NBLOCK =      1;   KBLOCK =      1    inner block; outer block
   IBRION =     -1    ionic relax: 0-MD 1-quasi-New 2-CG
   NFREE  =      0    steps in history (QN), initial steepest desc. (CG)
   ISIF   =      2    stress and relaxation
   IWAVPR =     10    prediction:  0-non 1-charg 2-wave 3-comb
   ISYM   =      2    0-nonsym 1-usesym 2-fastsym
   LCORR  =      T    Harris-Foulkes like correction to forces

   POTIM  = 0.5000    time-step for ionic-motion
   TEIN   =    0.0    initial temperature
   TEBEG  =    0.0;   TEEND  =   0.0 temperature during run
   SMASS  =  -3.00    Nose mass-parameter (am)
   estimated Nose-frequenzy (Omega)   =  0.10E-29 period in steps =****** mass=  -0.423E-27a.u.
   SCALEE = 1.0000    scale energy and forces
   NPACO  =    256;   APACO  = 16.0  distance and # of slots for P.C.
   PSTRESS=    0.0 pullay stress

  Mass of Ions in am
   POMASS =  69.72208.98 74.92
  Ionic Valenz
   ZVAL   =   3.00 15.00  5.00
  Atomic Wigner-Seitz radii
  virtual crystal weights
   VCA    =   1.00  1.00  1.00
   NELECT =      26.0000    total number of electrons
   NUPDOWN=      -1.0000    fix difference up-down

 DOS related values:
   EMIN   =  10.00;   EMAX   =-10.00  energy-range for DOS
   EFERMI =   0.00
   ISMEAR =     0;   SIGMA  =   0.05  broadening in eV -4-tet -1-fermi 0-gaus

 Electronic relaxation 2 (details)
   IALGO  =     38    algorithm
   LDIAG  =      T    sub-space diagonalisation (order eigenvalues)
   LSUBROT=      F    optimize rotation matrix (better conditioning)
   TURBO    =      0    0=normal 1=particle mesh
   IRESTART =      0    0=no restart 2=restart with 2 vectors
   NREBOOT  =      0    no. of reboots
   NMIN     =      0    reboot dimension
   EREF     =   0.00    reference energy to select bands
   IMIX   =      4    mixing-type and parameters
     AMIX     =   0.40;   BMIX     =  1.00
     AMIX_MAG =   1.60;   BMIX_MAG =  1.00
     AMIN     =   0.10
     WC   =   100.;   INIMIX=   1;  MIXPRE=   1;  MAXMIX= -45

 Intra band minimization:
   WEIMIN = 0.0000     energy-eigenvalue tresh-hold
   EBREAK =  0.13E-06  absolut break condition
   DEPER  =   0.30     relativ break condition

   TIME   =   0.40     timestep for ELM

  volume/ion in A,a.u.               =      28.41       191.73
  Fermi-wavevector in a.u.,A,eV,Ry     =   1.001267  1.892120 13.640326  1.002536
  Thomas-Fermi vector in A             =   2.133678

 Write flags
   LWAVE        =      F    write WAVECAR
   LDOWNSAMPLE  =      F    k-point downsampling of WAVECAR
   LCHARG       =      F    write CHGCAR
   LVTOT        =      F    write LOCPOT, total local potential
   LVHAR        =      F    write LOCPOT, Hartree potential only
   LELF         =      F    write electronic localiz. function (ELF)
   LORBIT       =     11    0 simple, 1 ext, 2 COOP (PROOUT), +10 PAW based schemes

 Dipole corrections
   LMONO  =      F    monopole corrections only (constant potential shift)
   LDIPOL =      F    correct potential (dipole corrections)
   IDIPOL =      0    1-x, 2-y, 3-z, 4-all directions
   EPSILON=  1.0000000 bulk dielectric constant

 Exchange correlation treatment:
   GGA     =    --    GGA type
   VOSKOWN=      0    Vosko Wilk Nusair interpolation
   LHFCALC =     F    Hartree Fock is set to
   LHFONE  =     F    Hartree Fock one center treatment
   AEXX    =    0.0000 exact exchange contribution

 Linear response parameters
   LEPSILON=     F    determine dielectric tensor
   LRPA    =     F    only Hartree local field effects (RPA)
   LNABLA  =     F    use nabla operator in PAW spheres
   LVEL    =     F    velocity operator in full k-point grid
   LINTERFAST=   F  fast interpolation
   KINTER  =     0    interpolate to denser k-point grid
   CSHIFT  =0.1000    complex shift for real part using Kramers Kronig
   OMEGAMAX=  -1.0    maximum frequency
   DEG_THRESHOLD= 0.2000000E-02 threshold for treating states as degnerate
   RTIME   =   -0.100 relaxation time in fs
  (WPLASMAI=    0.000 imaginary part of plasma frequency in eV, 0.658/RTIME)
   DFIELD  = 0.0000000 0.0000000 0.0000000 field for delta impulse in time

 Orbital magnetization related:
   ORBITALMAG=     F  switch on orbital magnetization
   LCHIMAG   =     F  perturbation theory with respect to B field
   DQ        =  0.001000  dq finite difference perturbation B field
   LLRAUG    =     F  two centre corrections for induced B field

 Static calculation
 charge density and potential will be updated during run
 non-spin polarized calculation
 Variant of blocked Davidson
 Davidson routine will perform the subspace rotation
 perform sub-space diagonalisation
    after iterative eigenvector-optimisation
 modified Broyden-mixing scheme, WC =      100.0
 initial mixing is a Kerker type mixing with AMIX =  0.4000 and BMIX =      1.0000
 Hartree-type preconditioning will be used
 using additional bands            7
 reciprocal scheme for non local part
 use partial core corrections
 calculate Harris-corrections to forces
   (improved forces if not selfconsistent)
 use gradient corrections
 use of overlap-Matrix (Vanderbilt PP)
 Gauss-broadening in eV      SIGMA  =   0.05

  energy-cutoff  :      500.00
  volume of cell :      113.64
      direct lattice vectors                 reciprocal lattice vectors
     4.300140858  0.000000000  0.000000000     0.232550522  0.000000000  0.000000000
     0.000000000  4.300140858  0.000000000     0.000000000  0.232550522  0.000000000
     0.000000000  0.000000000  6.145861149     0.000000000  0.000000000  0.162711128

  length of vectors
     4.300140858  4.300140858  6.145861149     0.232550522  0.232550522  0.162711128

 old parameters found on file WAVECAR:
  energy-cutoff  :      500.00
  volume of cell :      113.64
      direct lattice vectors                 reciprocal lattice vectors
[...]
   0.07894737  0.07894737  0.50000000       0.007
   0.05263158  0.05263158  0.50000000       0.007
   0.02631579  0.02631579  0.50000000       0.007
   0.00000000  0.00000000  0.50000000       0.007

 position of ions in fractional coordinates (direct lattice)
   0.50000000  0.00000000  0.72573602
   0.00000000  0.50000000  0.27426400
   0.00000000  0.00000000  0.00000000
   0.50000000  0.50000000  0.50000000

 position of ions in cartesian coordinates  (Angst):
   2.15007043  0.00000000  4.46027279
   0.00000000  2.15007043  1.68558848
   0.00000000  0.00000000  0.00000000
   2.15007043  2.15007043  3.07293057

 k-point  1 :   0.0000 0.0000 0.0000  plane waves:    2879
 k-point  2 :   0.0000 0.0263 0.0000  plane waves:    2885
 k-point  3 :   0.0000 0.0526 0.0000  plane waves:    2873
 k-point  4 :   0.0000 0.0789 0.0000  plane waves:    2885
 k-point  5 :   0.0000 0.1053 0.0000  plane waves:    2893
 k-point  6 :   0.0000 0.1316 0.0000  plane waves:    2887
 k-point  7 :   0.0000 0.1579 0.0000  plane waves:    2883
 k-point  8 :   0.0000 0.1842 0.0000  plane waves:    2888
 k-point  9 :   0.0000 0.2105 0.0000  plane waves:    2886
 k-point 10 :   0.0000 0.2368 0.0000  plane waves:    2888
 k-point 11 :   0.0000 0.2632 0.0000  plane waves:    2888
 k-point 12 :   0.0000 0.2895 0.0000  plane waves:    2882
 k-point 13 :   0.0000 0.3158 0.0000  plane waves:    2882
 k-point 14 :   0.0000 0.3421 0.0000  plane waves:    2882
 k-point 15 :   0.0000 0.3684 0.0000  plane waves:    2886
 k-point 16 :   0.0000 0.3947 0.0000  plane waves:    2884
 k-point 17 :   0.0000 0.4211 0.0000  plane waves:    2890
 k-point 18 :   0.0000 0.4474 0.0000  plane waves:    2896
 k-point 19 :   0.0000 0.4737 0.0000  plane waves:    2904
 k-point 20 :   0.0000 0.5000 0.0000  plane waves:    2892
 k-point 21 :   0.0000 0.5000 0.0000  plane waves:    2892
 k-point 22 :   0.0263 0.5000 0.0000  plane waves:    2894
 k-point 23 :   0.0526 0.5000 0.0000  plane waves:    2894
 k-point 24 :   0.0789 0.5000 0.0000  plane waves:    2898
 k-point 25 :   0.1053 0.5000 0.0000  plane waves:    2890
 k-point 26 :   0.1316 0.5000 0.0000  plane waves:    2894
 k-point 27 :   0.1579 0.5000 0.0000  plane waves:    2894
 k-point 28 :   0.1842 0.5000 0.0000  plane waves:    2888
 k-point 29 :   0.2105 0.5000 0.0000  plane waves:    2892
 k-point 30 :   0.2368 0.5000 0.0000  plane waves:    2892
 k-point 31 :   0.2632 0.5000 0.0000  plane waves:    2884
 k-point 32 :   0.2895 0.5000 0.0000  plane waves:    2874
 k-point 33 :   0.3158 0.5000 0.0000  plane waves:    2884
 k-point 34 :   0.3421 0.5000 0.0000  plane waves:    2884
 k-point 35 :   0.3684 0.5000 0.0000  plane waves:    2888
 k-point 36 :   0.3947 0.5000 0.0000  plane waves:    2878
 k-point 37 :   0.4211 0.5000 0.0000  plane waves:    2870
 k-point 38 :   0.4474 0.5000 0.0000  plane waves:    2868
 k-point 39 :   0.4737 0.5000 0.0000  plane waves:    2868
 k-point 40 :   0.5000 0.5000 0.0000  plane waves:    2880
 k-point 41 :   0.5000 0.5000 0.0000  plane waves:    2880
 k-point 42 :   0.4737 0.4737 0.0000  plane waves:    2868
 k-point 43 :   0.4474 0.4474 0.0000  plane waves:    2877
 k-point 44 :   0.4211 0.4211 0.0000  plane waves:    2889
 k-point 45 :   0.3947 0.3947 0.0000  plane waves:    2877
 k-point 46 :   0.3684 0.3684 0.0000  plane waves:    2875
 k-point 47 :   0.3421 0.3421 0.0000  plane waves:    2883
 k-point 48 :   0.3158 0.3158 0.0000  plane waves:    2887
 k-point 49 :   0.2895 0.2895 0.0000  plane waves:    2885
 k-point 50 :   0.2632 0.2632 0.0000  plane waves:    2889
 k-point 51 :   0.2368 0.2368 0.0000  plane waves:    2883
 k-point 52 :   0.2105 0.2105 0.0000  plane waves:    2887
 k-point 53 :   0.1842 0.1842 0.0000  plane waves:    2871
 k-point 54 :   0.1579 0.1579 0.0000  plane waves:    2871
 k-point 55 :   0.1316 0.1316 0.0000  plane waves:    2879
 k-point 56 :   0.1053 0.1053 0.0000  plane waves:    2877
 k-point 57 :   0.0789 0.0789 0.0000  plane waves:    2885
 k-point 58 :   0.0526 0.0526 0.0000  plane waves:    2883
 k-point 59 :   0.0263 0.0263 0.0000  plane waves:    2881
 k-point 60 :   0.0000 0.0000 0.0000  plane waves:    2879
[...]
 k-point 85 :   0.0000 0.1053 0.5000  plane waves:    2890
 k-point 86 :   0.0000 0.1316 0.5000  plane waves:    2892
 k-point 87 :   0.0000 0.1579 0.5000  plane waves:    2874
 k-point 88 :   0.0000 0.1842 0.5000  plane waves:    2870
 k-point 89 :   0.0000 0.2105 0.5000  plane waves:    2866
 k-point 90 :   0.0000 0.2368 0.5000  plane waves:    2868
 k-point 91 :   0.0000 0.2632 0.5000  plane waves:    2878
 k-point 92 :   0.0000 0.2895 0.5000  plane waves:    2878
 k-point 93 :   0.0000 0.3158 0.5000  plane waves:    2882
 k-point 94 :   0.0000 0.3421 0.5000  plane waves:    2886
 k-point 95 :   0.0000 0.3684 0.5000  plane waves:    2900
 k-point 96 :   0.0000 0.3947 0.5000  plane waves:    2886
 k-point 97 :   0.0000 0.4211 0.5000  plane waves:    2886
 k-point 98 :   0.0000 0.4474 0.5000  plane waves:    2894
 k-point 99 :   0.0000 0.4737 0.5000  plane waves:    2904
 k-point ** :   0.0000 0.5000 0.5000  plane waves:    2924
 k-point ** :   0.0000 0.5000 0.5000  plane waves:    2924
 k-point ** :   0.0263 0.5000 0.5000  plane waves:    2904
 k-point ** :   0.0526 0.5000 0.5000  plane waves:    2892
 k-point ** :   0.0789 0.5000 0.5000  plane waves:    2900
 k-point ** :   0.1053 0.5000 0.5000  plane waves:    2896
 k-point ** :   0.1316 0.5000 0.5000  plane waves:    2900
 k-point ** :   0.1579 0.5000 0.5000  plane waves:    2900
 k-point ** :   0.1842 0.5000 0.5000  plane waves:    2896
 k-point ** :   0.2105 0.5000 0.5000  plane waves:    2904
 k-point ** :   0.2368 0.5000 0.5000  plane waves:    2900
 k-point ** :   0.2632 0.5000 0.5000  plane waves:    2884
 k-point ** :   0.2895 0.5000 0.5000  plane waves:    2888
 k-point ** :   0.3158 0.5000 0.5000  plane waves:    2888
 k-point ** :   0.3421 0.5000 0.5000  plane waves:    2880
 k-point ** :   0.3684 0.5000 0.5000  plane waves:    2876
 k-point ** :   0.3947 0.5000 0.5000  plane waves:    2888
 k-point ** :   0.4211 0.5000 0.5000  plane waves:    2884
 k-point ** :   0.4474 0.5000 0.5000  plane waves:    2884
 k-point ** :   0.4737 0.5000 0.5000  plane waves:    2880
 k-point ** :   0.5000 0.5000 0.5000  plane waves:    2872
 k-point ** :   0.5000 0.5000 0.5000  plane waves:    2872
 k-point ** :   0.4737 0.4737 0.5000  plane waves:    2880
 k-point ** :   0.4474 0.4474 0.5000  plane waves:    2874
 k-point ** :   0.4211 0.4211 0.5000  plane waves:    2890
 k-point ** :   0.3947 0.3947 0.5000  plane waves:    2896
 k-point ** :   0.3684 0.3684 0.5000  plane waves:    2910
 k-point ** :   0.3421 0.3421 0.5000  plane waves:    2894
 k-point ** :   0.3158 0.3158 0.5000  plane waves:    2894
 k-point ** :   0.2895 0.2895 0.5000  plane waves:    2898
 k-point ** :   0.2632 0.2632 0.5000  plane waves:    2888
 k-point ** :   0.2368 0.2368 0.5000  plane waves:    2888
 k-point ** :   0.2105 0.2105 0.5000  plane waves:    2868
 k-point ** :   0.1842 0.1842 0.5000  plane waves:    2864
 k-point ** :   0.1579 0.1579 0.5000  plane waves:    2858
 k-point ** :   0.1316 0.1316 0.5000  plane waves:    2866
 k-point ** :   0.1053 0.1053 0.5000  plane waves:    2864
 k-point ** :   0.0789 0.0789 0.5000  plane waves:    2872
 k-point ** :   0.0526 0.0526 0.5000  plane waves:    2874
 k-point ** :   0.0263 0.0263 0.5000  plane waves:    2886
 k-point ** :   0.0000 0.0000 0.5000  plane waves:    2886

 maximum and minimum number of plane-waves per node :       385      336

 maximum number of plane-waves:      2924
 maximum index in each direction:
   IXMAX=    7   IYMAX=    7   IZMAX=   11
   IXMIN=   -8   IYMIN=   -8   IZMIN=  -11

 parallel 3D FFT for wavefunctions:
    minimum data exchange during FFTs selected (reduces bandwidth)
 parallel 3D FFT for charge:
    minimum data exchange during FFTs selected (reduces bandwidth)

 Broyden mixing: mesh for mixing (old mesh)
   NGX = 15   NGY = 15   NGZ = 23
  (NGX  = 64   NGY  = 64   NGZ  = 96)
  gives a total of   5175 points

 initial charge density was supplied:
 charge density of overlapping atoms calculated
 number of electron      26.0000000 magnetization
 keeping initial charge density in first step

 Maximum index for augmentation-charges         1186 (set IRDMAX)

 First call to EWALD:  gamma=   0.366
 Maximum number of real-space cells 3x 3x 2
 Maximum number of reciprocal cells 2x 2x 3

--------------------------------------- Iteration      1(   1)  ---------------------------------------

 eigenvalue-minimisations  :  8264
 total energy-change (2. order) :-0.9632762E+01  (-0.2789771E+02)
 number of electron      26.0000008 magnetization
 augmentation part        4.1377843 magnetization

 Broyden mixing:
  rms(total) = 0.78286E+00    rms(broyden)= 0.78286E+00
  rms(prec ) = 0.91152E+00
  weight for this iteration     100.00

 Free energy of the ion-electron system (eV)
  alpha Z        PSCENC =        64.20128509
  Ewald energy   TEWEN  =     -1439.91766544
  -Hartree energ DENC   =      -749.41397116
  -exchange      EXHF   =         0.00000000
  -V(xc)+E(xc)   XCENC  =        -1.78998093
  PAW double counting   =      1946.54768465    -1848.13466329
  entropy T*S    EENTRO =        -0.00135949
  eigenvalues    EBANDS =      -228.24731293
  atomic energy  EATOM  =      2247.12322143
  Solvation  Ediel_sol  =         0.00000000
  free energy    TOTEN  =        -9.63276207 eV

  energy without entropy =       -9.63140258  energy(sigma->0) =       -9.63208232

[...]

 eigenvalues of (default mixing * dielectric matrix)
  average eigenvalue GAMMA=   0.9618
  0.9618

[...]

 eigenvalue-minimisations  :  7632
 total energy-change (2. order) : 0.1145212E-01  (-0.6163293E-02)
 number of electron      26.0000008 magnetization
 augmentation part        3.9621702 magnetization

[...]

 Broyden mixing:
  rms(total) = 0.43728E-03    rms(broyden)= 0.43728E-03
  rms(prec ) = 0.75500E-03
  weight for this iteration     100.00

 eigenvalues of (default mixing * dielectric matrix)
  average eigenvalue GAMMA=   1.7300
  3.2418  2.4905  1.5972  1.5972  1.0080  1.0877  1.0877

[...]

--------------------------------------- Iteration      1(   9)  ---------------------------------------

 eigenvalue-minimisations  :  5392
 total energy-change (2. order) :-0.2756181E-05  (-0.5906952E-06)
 number of electron      26.0000008 magnetization
 augmentation part        3.9651424 magnetization

 Free energy of the ion-electron system (eV)
  alpha Z        PSCENC =        64.20128509
  Ewald energy   TEWEN  =     -1439.91766544
  -Hartree energ DENC   =      -754.95443898
  -exchange      EXHF   =         0.00000000
  -V(xc)+E(xc)   XCENC  =        -0.86584159
  PAW double counting   =      2433.89075788    -2338.89441294
  entropy T*S    EENTRO =        -0.00334401
  eigenvalues    EBANDS =      -223.74602676
  atomic energy  EATOM  =      2247.12322143
  Solvation  Ediel_sol  =         0.00000000
  free energy    TOTEN  =       -13.16646533 eV

  energy without entropy =      -13.16312131  energy(sigma->0) =      -13.16479332

 average (electrostatic) potential at core
  the test charge radii are     1.2767  1.0856  1.0621
  (the norm of the test charge is              1.0000)
       1 -14.5576       2 -14.5576       3-107.3638       4 -51.3595

 E-fermi :   3.1919     XC(G=0):  -8.7117     alpha+bet : -8.3023

 k-point     1 :       0.0000    0.0000    0.0000
  band No.  band energies     occupation
      1     -19.2405      2.00000
      2     -19.2405      2.00000
      3     -19.2371      2.00000
      4     -19.2288      2.00000
      5     -19.1725      2.00000
      6      -9.1009      2.00000
      7      -7.3482      2.00000
      8      -3.4823      2.00000
      9       0.5539      2.00000
     10       0.5539      2.00000
     11       1.9251      2.00000
     12       2.9915      2.00000
     13       3.2197      0.43093
     14       3.2197      0.43092
     15       4.2044      0.00000
     16       4.4209      0.00000
     17       6.2257      0.00000
     18       6.2257      0.00000
     19       6.3728      0.00000
     20       8.9501      0.00000

[...]

 k-point   140 :       0.0000    0.0000    0.5000
  band No.  band energies     occupation
      1     -19.2406      2.00000
      2     -19.2406      2.00000
      3     -19.2369      2.00000
      4     -19.2289      2.00000
      5     -19.1726      2.00000
      6      -8.4452      2.00000
      7      -8.3912      2.00000
      8      -1.3540      2.00000
      9      -1.3447      2.00000
     10       1.0108      2.00000
     11       1.0108      2.00000
     12       2.1062      2.00000
     13       2.1063      2.00000
     14       4.1916      0.00000
     15       4.7923      0.00000
     16       5.5120      0.00000
     17       5.8762      0.00000
     18       8.5891      0.00000
     19       8.5893      0.00000
     20       8.9622      0.00000

 soft charge-density along one line, spin component           1
         0         1         2         3         4         5         6         7         8         9
 total charge-density along one line

------------------------ aborting loop because EDIFF is reached ----------------------------------------

 total charge

# of ion       s       p       d       tot
    1        1.123   1.031   0.092   2.246
    2        1.133   1.007   0.097   2.237
    3        1.461   1.624   9.901  12.986
    4        1.249   1.500   0.022   2.771
tot          4.965   5.162  10.112  20.240

  FORCE on cell =-STRESS in cart. coord.  units (eV):
  Direction    XX          YY          ZZ          XY          YZ          ZX
  Alpha Z    64.20129    64.20129    64.20129
  Ewald    -439.74121  -439.74123  -560.43629     0.00000     0.00000    -0.00000
  Hartree   290.75213   290.75213   173.45254    -0.00000    -0.00000    -0.00000
  E(xc)    -113.32096  -113.32096  -112.99765    -0.00000     0.00000    -0.00000
  Local    -322.09695  -322.09694   -79.40616    -0.00000    -0.00000    -0.00000
  n-local   159.28797   155.23199   154.84101    -0.24304    -0.00000     0.00000
  augment   138.78998   138.78998   139.69748     0.00000     0.00000     0.00000
  Kinetic   232.06071   224.04179   221.08150    -0.70835    -0.00000    -0.00000
  Fock        0.00000     0.00000     0.00000     0.00000     0.00000     0.00000
  Total       3.89550     3.89550     0.43371     0.00000     0.00000     0.00000
  in kB      54.91945    54.91945     6.11458     0.00000     0.00000     0.00000

 VOLUME and BASIS-vectors are now :
  energy-cutoff  :      500.00
  volume of cell :      113.64
      direct lattice vectors                 reciprocal lattice vectors
     4.300140858  0.000000000  0.000000000     0.232550522  0.000000000  0.000000000
     0.000000000  4.300140858  0.000000000     0.000000000  0.232550522  0.000000000
     0.000000000  0.000000000  6.145861149     0.000000000  0.000000000  0.162711128

  length of vectors
     4.300140858  4.300140858  6.145861149     0.232550522  0.232550522  0.162711128

 FORCES acting on ions
    electron-ion (+dipol)            ewald-force                    non-local-force                 convergence-correction
   -.624E-14 -.140E-13 0.474E+02   0.261E-14 -.178E-15 -.473E+02   0.000E+00 0.000E+00 -.311E+00   -.914E-15 0.267E-15 -.384E-03
   0.325E-14 -.116E-13 -.474E+02   -.168E-14 -.547E-14 0.473E+02   0.000E+00 0.265E-22 0.311E+00   -.322E-14 0.457E-15 0.384E-03
   -.249E-13 0.136E-13 0.737E-06   -.341E-14 0.631E-14 0.425E-05   0.000E+00 0.000E+00 0.000E+00   -.722E-13 -.747E-14 -.474E-07
   0.948E-14 0.364E-12 0.933E-07   0.139E-14 0.780E-16 0.515E-06   -.662E-23 0.000E+00 0.000E+00   -.222E-14 -.619E-15 0.136E-07
   -.184E-13 0.352E-12 0.346E-06   -.109E-14 0.740E-15 -.355E-14   -.662E-23 0.265E-22 0.000E+00   -.786E-13 -.737E-14 -.320E-07

 POSITION                                       TOTAL-FORCE (eV/Angst)
      2.15007      0.00000      4.46027        -0.000000      0.000000     -0.215771
      0.00000      2.15007      1.68559        -0.000000      0.000000      0.215771
      0.00000      0.00000      0.00000        -0.000000      0.000000      0.000000
      2.15007      2.15007      3.07293         0.000000     -0.000000      0.000000
    total drift:                               -0.000000      0.000000      0.000000

  FREE ENERGIE OF THE ION-ELECTRON SYSTEM (eV)
  free  energy   TOTEN  =       -13.16646533 eV

  energy  without entropy=      -13.16312131  energy(sigma->0) =      -13.16479332

 total charge

# of ion       s       p       d       tot
    1        1.123   1.031   0.092   2.246
    2        1.133   1.007   0.097   2.237
    3        1.461   1.624   9.901  12.986
    4        1.249   1.500   0.022   2.771
tot          4.965   5.162  10.112  20.240