 vasp.5.4.4.18Apr17-6-g9f103f2a35 (build Dec 22 2021 20:15:33) complex

 executed on             LinuxIFC date 2022.06.08  16:36:34

 INCAR:
 POTCAR:    PAW_PBE Ga 08Apr2002
 POTCAR:    PAW_PBE Bi_d 06Sep2000
 POTCAR:    PAW_PBE As 22Sep2009
 POTCAR:    PAW_PBE Ga 08Apr2002
   VRHFIN =Ga: s2p1

   TITEL  = PAW_PBE Ga 08Apr2002
   POMASS =   69.723; ZVAL   =    3.000    mass and valenz
   ENMAX  =  134.678; ENMIN  =  101.009 eV

 POTCAR:    PAW_PBE Bi_d 06Sep2000
   VRHFIN =Bi:

   TITEL  = PAW_PBE Bi_d 06Sep2000
   POMASS =  208.980; ZVAL   =   15.000    mass and valenz
   ENMAX  =  242.839; ENMIN  =  182.129 eV

 POTCAR:    PAW_PBE As 22Sep2009
   VRHFIN =As: s2p3

   TITEL  = PAW_PBE As 22Sep2009
   POMASS =   74.922; ZVAL   =    5.000    mass and valenz
   ENMAX  =  208.702; ENMIN  =  156.526 eV

  PAW_PBE Ga 08Apr2002                  :
  PAW_PBE Bi_d 06Sep2000                :
  PAW_PBE As 22Sep2009                  :

 POSCAR: Ga2 Bi1 As1
  positions in direct lattice
 exchange correlation table for  LEXCH =        8
   RHO(1)=    0.500       N(1)  =     2000
   RHO(2)=  100.500       N(2)  =     4000

 ion  position               nearest neighbor table
   1  0.500  0.000  0.726-   4 2.56   4 2.56   3 2.73   3 2.73
   2  0.000  0.500  0.274-   4 2.56   4 2.56   3 2.73   3 2.73
   3  0.000  0.000  0.000-   1 2.73   1 2.73   2 2.73   2 2.73
   4  0.500  0.500  0.500-   2 2.56   2 2.56   1 2.56   1 2.56

  LATTYP: Found a simple tetragonal cell.
 ALAT       =     4.3001408577
 C/A-ratio  =     1.4292232167

  Lattice vectors:

 A1 = (   4.3001408577,   0.0000000000,   0.0000000000)
 A2 = (   0.0000000000,   4.3001408577,   0.0000000000)
 A3 = (   0.0000000000,   0.0000000000,   6.1458611488)

Analysis of symmetry for initial positions (statically):
 Subroutine PRICEL returns:
 Original cell was already a primitive cell.

 Routine SETGRP: Setting up the symmetry group for a
 simple tetragonal supercell.

 Subroutine GETGRP returns: Found  8 space group operations
 (whereof  8 operations were pure point group operations)
 out of a pool of 16 trial point group operations.

The static configuration has the point symmetry D_2d.

Analysis of symmetry for dynamics (positions and initial velocities):
 Subroutine PRICEL returns:
 Original cell was already a primitive cell.

[...]

The dynamic configuration has the point symmetry D_2d.

Analysis of structural, dynamic, and magnetic symmetry:
 Subroutine PRICEL returns:
 Original cell was already a primitive cell.

 Routine SETGRP: Setting up the symmetry group for a
 simple tetragonal supercell.

 Subroutine GETGRP returns: Found  8 space group operations
 (whereof  8 operations were pure point group operations)
 out of a pool of 16 trial point group operations.

The (compounded) configuration has the point symmetry D_2d.

 Subroutine INISYM returns: Found  8 space group operations
 (whereof  8 operations are pure point group operations),
 and found     1 'primitive' translations

 KPOINTS: K-points alon1g high symmetry lines
  interpolating k-points between supplied coordinates
  k-points in reciprocal lattice
Space group operators:
 irot       det(A)        alpha          n_x          n_y          n_z        tau_x        tau_y        tau_z
    1     1.000000     0.000001     1.000000     0.000000     0.000000     0.000000     0.000000     0.000000
    2    -1.000000    90.000000     0.000000     0.000000    -1.000000     0.000000     0.000000     0.000000
    3     1.000000   180.000000     0.000000     0.000000     1.000000     0.000000     0.000000     0.000000
    4    -1.000000    90.000000     0.000000     0.000000     1.000000     0.000000     0.000000     0.000000
    5    -1.000000   180.000000     0.000000     1.000000     0.000000     0.000000     0.000000     0.000000
    6     1.000000   180.000000     0.707107     0.707107     0.000000     0.000000     0.000000     0.000000
    7    -1.000000   180.000000     1.000000     0.000000     0.000000     0.000000     0.000000     0.000000
    8     1.000000   180.000000     0.707107    -0.707107     0.000000     0.000000     0.000000     0.000000

 SYSTEM =  Ga2BiAs
 POSCAR =  Ga2 Bi1 As1

 Startparameter for this run:
   NWRITE =      2    write-flag & timer
   PREC   = accura    normal or accurate (medium, high low for compatibility)
   ISTART =      1    job   : 0-new  1-cont  2-samecut
   ICHARG =      2    charge: 1-file 2-atom 10-const
   ISPIN  =      1    spin polarized calculation?
   LNONCOLLINEAR =      T non collinear calculations
   LSORBIT =      T    spin-orbit coupling
   INIWAV =      1    electr: 0-lowe 1-rand  2-diag
   LASPH  =      F    aspherical Exc in radial PAW
   METAGGA=      F    non-selfconsistent MetaGGA calc.

 Electronic Relaxation 1
   ENCUT  =  500.0 eV  36.75 Ry    6.06 a.u.   7.84  7.84 11.21*2*pi/ulx,y,z
   ENINI  =  500.0     initial cutoff
   ENAUG  =  462.8 eV  augmentation charge cutoff
   NELM   =     60;   NELMIN=  2; NELMDL=  0     # of ELM steps
   EDIFF  = 0.1E-04   stopping-criterion for ELM
   LREAL  =      F    real-space projection
   NLSPLINE    = F    spline interpolate recip. space projectors
   LCOMPAT=      F    compatible to vasp.4.4
   GGA_COMPAT  = T    GGA compatible to vasp.4.4-vasp.4.6
   LMAXPAW     = -100 max onsite density
   LMAXMIX     =    2 max onsite mixed and CHGCAR
   VOSKOWN=      0    Vosko Wilk Nusair interpolation
   ROPT   =    0.00000   0.00000   0.00000
 Ionic relaxation
   EDIFFG = -.1E-01   stopping-criterion for IOM
   NSW    =      0    number of steps for IOM
   NBLOCK =      1;   KBLOCK =      1    inner block; outer block
   IBRION =     -1    ionic relax: 0-MD 1-quasi-New 2-CG
   NFREE  =      0    steps in history (QN), initial steepest desc. (CG)
   ISIF   =      2    stress and relaxation
   IWAVPR =     10    prediction:  0-non 1-charg 2-wave 3-comb
   ISYM   =      2    0-nonsym 1-usesym 2-fastsym
   LCORR  =      T    Harris-Foulkes like correction to forces

   POTIM  = 0.5000    time-step for ionic-motion
   TEIN   =    0.0    initial temperature
   TEBEG  =    0.0;   TEEND  =   0.0 temperature during run
   SMASS  =  -3.00    Nose mass-parameter (am)
   estimated Nose-frequenzy (Omega)   =  0.10E-29 period in steps =****** mass=  -0.423E-27a.u.
   SCALEE = 1.0000    scale energy and forces
   NPACO  =    256;   APACO  = 16.0  distance and # of slots for P.C.
   PSTRESS=    0.0 pullay stress

  Mass of Ions in am
   POMASS =  69.72208.98 74.92
  Ionic Valenz
   ZVAL   =   3.00 15.00  5.00
  Atomic Wigner-Seitz radii
  virtual crystal weights
   VCA    =   1.00  1.00  1.00
   NELECT =      26.0000    total number of electrons
   NUPDOWN=       0.0000    fix difference up-down

 DOS related values:
   EMIN   =  10.00;   EMAX   =-10.00  energy-range for DOS
   EFERMI =   0.00
   ISMEAR =     0;   SIGMA  =   0.05  broadening in eV -4-tet -1-fermi 0-gaus

 Electronic relaxation 2 (details)
   IALGO  =     38    algorithm
   LDIAG  =      T    sub-space diagonalisation (order eigenvalues)
   LSUBROT=      F    optimize rotation matrix (better conditioning)
   TURBO    =      0    0=normal 1=particle mesh
   IRESTART =      0    0=no restart 2=restart with 2 vectors
   NREBOOT  =      0    no. of reboots
   NMIN     =      0    reboot dimension
   EREF     =   0.00    reference energy to select bands
   IMIX   =      4    mixing-type and parameters
     AMIX     =   0.40;   BMIX     =  1.00
     AMIX_MAG =   1.60;   BMIX_MAG =  1.00
     AMIN     =   0.10
     WC   =   100.;   INIMIX=   1;  MIXPRE=   1;  MAXMIX= -45

 Intra band minimization:
   WEIMIN = 0.0000     energy-eigenvalue tresh-hold
   EBREAK =  0.69E-07  absolut break condition
   DEPER  =   0.30     relativ break condition

   TIME   =   0.40     timestep for ELM

  volume/ion in A,a.u.               =      28.41       191.73
  Fermi-wavevector in a.u.,A,eV,Ry     =   1.001267  1.892120 13.640326  1.002536
  Thomas-Fermi vector in A             =   2.133678

 Write flags
   LWAVE        =      F    write WAVECAR
   LDOWNSAMPLE  =      F    k-point downsampling of WAVECAR
   LCHARG       =      F    write CHGCAR
   LVTOT        =      F    write LOCPOT, total local potential
   LVHAR        =      F    write LOCPOT, Hartree potential only
   LELF         =      F    write electronic localiz. function (ELF)
   LORBIT       =      0    0 simple, 1 ext, 2 COOP (PROOUT), +10 PAW based schemes

 Dipole corrections
   LMONO  =      F    monopole corrections only (constant potential shift)
   LDIPOL =      F    correct potential (dipole corrections)
   IDIPOL =      0    1-x, 2-y, 3-z, 4-all directions
   EPSILON=  1.0000000 bulk dielectric constant

 Exchange correlation treatment:
   GGA     =    --    GGA type
   VOSKOWN=      0    Vosko Wilk Nusair interpolation
   LHFCALC =     F    Hartree Fock is set to
   LHFONE  =     F    Hartree Fock one center treatment
   AEXX    =    0.0000 exact exchange contribution

 Linear response parameters
   LEPSILON=     F    determine dielectric tensor
   LRPA    =     F    only Hartree local field effects (RPA)
   LNABLA  =     F    use nabla operator in PAW spheres
   LVEL    =     F    velocity operator in full k-point grid
   LINTERFAST=   F  fast interpolation
   KINTER  =     0    interpolate to denser k-point grid
   CSHIFT  =0.1000    complex shift for real part using Kramers Kronig
   OMEGAMAX=  -1.0    maximum frequency
   DEG_THRESHOLD= 0.2000000E-02 threshold for treating states as degnerate
   RTIME   =   -0.100 relaxation time in fs
  (WPLASMAI=    0.000 imaginary part of plasma frequency in eV, 0.658/RTIME)
   DFIELD  = 0.0000000 0.0000000 0.0000000 field for delta impulse in time

 Orbital magnetization related:
   ORBITALMAG=     F  switch on orbital magnetization
   LCHIMAG   =     F  perturbation theory with respect to B field
   DQ        =  0.001000  dq finite difference perturbation B field
   LLRAUG    =     F  two centre corrections for induced B field

 Static calculation
 charge density and potential will be updated during run
 non collinear spin polarized calculation
 Variant of blocked Davidson
 Davidson routine will perform the subspace rotation
 perform sub-space diagonalisation
    after iterative eigenvector-optimisation
 modified Broyden-mixing scheme, WC =      100.0
 initial mixing is a Kerker type mixing with AMIX =  0.4000 and BMIX =      1.0000
 Hartree-type preconditioning will be used
 using additional bands           23
 reciprocal scheme for non local part
 use partial core corrections
 calculate Harris-corrections to forces
   (improved forces if not selfconsistent)
 use gradient corrections
 use of overlap-Matrix (Vanderbilt PP)
 Gauss-broadening in eV      SIGMA  =   0.05

  energy-cutoff  :      500.00
  volume of cell :      113.64
      direct lattice vectors                 reciprocal lattice vectors
     4.300140858  0.000000000  0.000000000     0.232550522  0.000000000  0.000000000
     0.000000000  4.300140858  0.000000000     0.000000000  0.232550522  0.000000000
     0.000000000  0.000000000  6.145861149     0.000000000  0.000000000  0.162711128

  length of vectors
     4.300140858  4.300140858  6.145861149     0.232550522  0.232550522  0.162711128

[...]
 k-point ** :   0.0000 0.0000 0.2826  plane waves:    5748
 k-point ** :   0.0000 0.0000 0.2899  plane waves:    5748
 k-point ** :   0.0000 0.0000 0.2971  plane waves:    5748
 k-point ** :   0.0000 0.0000 0.3043  plane waves:    5748
 k-point ** :   0.0000 0.0000 0.3116  plane waves:    5748
 k-point ** :   0.0000 0.0000 0.3188  plane waves:    5748
 k-point ** :   0.0000 0.0000 0.3261  plane waves:    5748
 k-point ** :   0.0000 0.0000 0.3333  plane waves:    5748
 k-point ** :   0.0000 0.0000 0.3406  plane waves:    5764
 k-point ** :   0.0000 0.0000 0.3478  plane waves:    5764
 k-point ** :   0.0000 0.0000 0.3551  plane waves:    5756
 k-point ** :   0.0000 0.0000 0.3623  plane waves:    5756
 k-point ** :   0.0000 0.0000 0.3696  plane waves:    5788
 k-point ** :   0.0000 0.0000 0.3768  plane waves:    5788
 k-point ** :   0.0000 0.0000 0.3841  plane waves:    5804
 k-point ** :   0.0000 0.0000 0.3913  plane waves:    5804
 k-point ** :   0.0000 0.0000 0.3986  plane waves:    5788
 k-point ** :   0.0000 0.0000 0.4058  plane waves:    5788
 k-point ** :   0.0000 0.0000 0.4130  plane waves:    5788
 k-point ** :   0.0000 0.0000 0.4203  plane waves:    5788
 k-point ** :   0.0000 0.0000 0.4275  plane waves:    5780
 k-point ** :   0.0000 0.0000 0.4348  plane waves:    5780
 k-point ** :   0.0000 0.0000 0.4420  plane waves:    5780
 k-point ** :   0.0000 0.0000 0.4493  plane waves:    5780
 k-point ** :   0.0000 0.0000 0.4565  plane waves:    5772
 k-point ** :   0.0000 0.0000 0.4638  plane waves:    5772
 k-point ** :   0.0000 0.0000 0.4710  plane waves:    5772
 k-point ** :   0.0000 0.0000 0.4783  plane waves:    5772
 k-point ** :   0.0000 0.0000 0.4855  plane waves:    5772
 k-point ** :   0.0000 0.0000 0.4928  plane waves:    5772
 k-point ** :   0.0000 0.0000 0.5000  plane waves:    5772
 k-point ** :   0.0000 0.0000 0.5000  plane waves:    5772
 k-point ** :   0.0000 0.0072 0.5000  plane waves:    5780
 k-point ** :   0.0000 0.0145 0.5000  plane waves:    5780
 k-point ** :   0.0000 0.0217 0.5000  plane waves:    5788
 k-point ** :   0.0000 0.0290 0.5000  plane waves:    5788
 k-point ** :   0.0000 0.0362 0.5000  plane waves:    5764
 k-point ** :   0.0000 0.0435 0.5000  plane waves:    5772
 k-point ** :   0.0000 0.0507 0.5000  plane waves:    5764
 k-point ** :   0.0000 0.0580 0.5000  plane waves:    5780
 k-point ** :   0.0000 0.0652 0.5000  plane waves:    5780
 k-point ** :   0.0000 0.0725 0.5000  plane waves:    5772
 k-point ** :   0.0000 0.0797 0.5000  plane waves:    5772
 k-point ** :   0.0000 0.0870 0.5000  plane waves:    5772
 k-point ** :   0.0000 0.0942 0.5000  plane waves:    5772
 k-point ** :   0.0000 0.1014 0.5000  plane waves:    5772
 k-point ** :   0.0000 0.1087 0.5000  plane waves:    5776
 k-point ** :   0.0000 0.1159 0.5000  plane waves:    5768
 k-point ** :   0.0000 0.1232 0.5000  plane waves:    5776
 k-point ** :   0.0000 0.1304 0.5000  plane waves:    5776
[...]
 k-point ** :   0.0000 0.3986 0.5000  plane waves:    5772
 k-point ** :   0.0000 0.4058 0.5000  plane waves:    5780
 k-point ** :   0.0000 0.4130 0.5000  plane waves:    5772
 k-point ** :   0.0000 0.4203 0.5000  plane waves:    5772
 k-point ** :   0.0000 0.4275 0.5000  plane waves:    5788
 k-point ** :   0.0000 0.4348 0.5000  plane waves:    5788
 k-point ** :   0.0000 0.4420 0.5000  plane waves:    5788
 k-point ** :   0.0000 0.4493 0.5000  plane waves:    5784
 k-point ** :   0.0000 0.4565 0.5000  plane waves:    5800
 k-point ** :   0.0000 0.4638 0.5000  plane waves:    5808
 k-point ** :   0.0000 0.4710 0.5000  plane waves:    5808
 k-point ** :   0.0000 0.4783 0.5000  plane waves:    5816
 k-point ** :   0.0000 0.4855 0.5000  plane waves:    5824
 k-point ** :   0.0000 0.4928 0.5000  plane waves:    5848
 k-point ** :   0.0000 0.5000 0.5000  plane waves:    5848

 maximum and minimum number of plane-waves per node :       760      682

 maximum number of plane-waves:      5848
 maximum index in each direction:
   IXMAX=    7   IYMAX=    7   IZMAX=   11
   IXMIN=   -8   IYMIN=   -8   IZMIN=  -11

 parallel 3D FFT for wavefunctions:
    minimum data exchange during FFTs selected (reduces bandwidth)
 parallel 3D FFT for charge:
    minimum data exchange during FFTs selected (reduces bandwidth)

 Broyden mixing: mesh for mixing (old mesh)
   NGX = 15   NGY = 15   NGZ = 23
  (NGX  = 64   NGY  = 64   NGZ  = 96)
  gives a total of   5175 points

 initial charge density was supplied:
 charge density of overlapping atoms calculated
 number of electron      26.0000000 magnetization       0.0000000      0.0000000      0.0000000
 keeping initial charge density in first step

 Maximum index for augmentation-charges         1186 (set IRDMAX)

 First call to EWALD:  gamma=   0.366
 Maximum number of real-space cells 3x 3x 2
 Maximum number of reciprocal cells 2x 2x 3

--------------------------------------- Iteration      1(   1)  ---------------------------------------

 eigenvalue-minimisations  : 22144
 total energy-change (2. order) :-0.2093790E+01  (-0.5156178E+02)
 number of electron      26.0000009 magnetization      -0.0000000     -0.0000000     -0.0000000
 augmentation part        4.3577477 magnetization      -0.0000000     -0.0000000     -0.0000000

 Broyden mixing:
  rms(total) = 0.10192E+01    rms(broyden)= 0.10192E+01
  rms(prec ) = 0.11561E+01
  weight for this iteration     100.00

 Free energy of the ion-electron system (eV)
  alpha Z        PSCENC =        64.20128509
  Ewald energy   TEWEN  =     -1439.91766544
  -Hartree energ DENC   =      -749.41397116
  -exchange      EXHF   =         0.00000000
  -V(xc)+E(xc)   XCENC  =        -1.78998093
  PAW double counting   =      1946.54768464    -1848.13466328
  entropy T*S    EENTRO =        -0.00193931
  eigenvalues    EBANDS =      -220.70776070
  atomic energy  EATOM  =      2247.12322143
  Solvation  Ediel_sol  =         0.00000000
  free energy    TOTEN  =        -2.09378966 eV

  energy without entropy =       -2.09185035  energy(sigma->0) =       -2.09282001

[...]

 eigenvalues of (default mixing * dielectric matrix)
  average eigenvalue GAMMA=   0.9360
  0.9360

[...]

 eigenvalue-minimisations  : 20284
 total energy-change (2. order) : 0.1949340E-01  (-0.2198629E-01)
 number of electron      26.0000008 magnetization      -0.0000000     -0.0000000      0.0000000
 augmentation part        3.8556080 magnetization       0.0000000     -0.0000000      0.0000000

[...]

 Broyden mixing:
  rms(total) = 0.49765E-03    rms(broyden)= 0.49765E-03
  rms(prec ) = 0.79670E-03
  weight for this iteration     100.00

 eigenvalues of (default mixing * dielectric matrix)
  average eigenvalue GAMMA=   1.5066
  3.0688  2.4058  2.0158  1.1015  1.1015  1.0059  0.6246  0.7288

[...]

--------------------------------------- Iteration      1(  10)  ---------------------------------------

 eigenvalue-minimisations  : 12640
 total energy-change (2. order) :-0.3325994E-05  (-0.3821674E-06)
 number of electron      26.0000008 magnetization       0.0000000     -0.0000000     -0.0000000
 augmentation part        3.8626503 magnetization       0.0000000     -0.0000000     -0.0000000

 Free energy of the ion-electron system (eV)
  alpha Z        PSCENC =        64.20128509
  Ewald energy   TEWEN  =     -1439.91766544
  -Hartree energ DENC   =      -758.46067506
  -exchange      EXHF   =         0.00000000
  -V(xc)+E(xc)   XCENC  =        -0.74912734
  PAW double counting   =      2421.16682331    -2327.98955835
  entropy T*S    EENTRO =        -0.00324145
  eigenvalues    EBANDS =      -216.30444522
  atomic energy  EATOM  =      2247.12322143
  Solvation  Ediel_sol  =         0.00000000
  free energy    TOTEN  =       -10.93338304 eV

  energy without entropy =      -10.93014159  energy(sigma->0) =      -10.93176231

 average (electrostatic) potential at core
  the test charge radii are     1.2767  1.0856  1.0621
  (the norm of the test charge is              1.0000)
       1 -14.4295       2 -14.4295       3-106.9789       4 -50.9834

 E-fermi :   3.4833     XC(G=0):  -8.6358     alpha+bet : -8.3023

 k-point     1 :       0.5000    0.5000    0.0000
  band No.  band energies     occupation
      1     -20.7188      1.00000
      2     -20.7188      1.00000
      3     -20.6353      1.00000
      4     -20.6353      1.00000
      5     -17.7664      1.00000
      6     -17.7664      1.00000
      7     -17.7479      1.00000
      8     -17.7479      1.00000
      9     -17.6570      1.00000
     10     -17.6570      1.00000
     11      -7.1443      1.00000
     12      -7.1443      1.00000
     13      -7.1437      1.00000
     14      -7.1437      1.00000
     15      -3.4803      1.00000
     16      -3.4803      1.00000
     17      -3.3478      1.00000
     18      -3.3478      1.00000
     19       0.2247      1.00000
     20       0.2247      1.00000
     21       0.4858      1.00000
     22       0.4858      1.00000
     23       0.9074      1.00000
     24       0.9074      1.00000
     25       1.1621      1.00000
     26       1.1621      1.00000
     27       4.0044      0.00000
     28       4.0044      0.00000
     29       4.2773      0.00000
     30       4.2773      0.00000
     31       4.4474      0.00000
     32       4.4474      0.00000
     33       4.7209      0.00000
     34       4.7209      0.00000
     35      11.0570      0.00000
     36      11.0881      0.00000

[...]

 k-point   210 :       0.0000    0.5000    0.5000
  band No.  band energies     occupation
      1     -20.7176      1.00000
      2     -20.7176      1.00000
      3     -20.6387      1.00000
      4     -20.6387      1.00000
      5     -17.7668      1.00000
      6     -17.7668      1.00000
      7     -17.7459      1.00000
      8     -17.7459      1.00000
      9     -17.6636      1.00000
     10     -17.6636      1.00000
     11      -7.7252      1.00000
     12      -7.7252      1.00000
     13      -7.6665      1.00000
     14      -7.6665      1.00000
     15      -3.3008      1.00000
     16      -3.3008      1.00000
     17      -2.9478      1.00000
     18      -2.9478      1.00000
     19       1.5120      1.00000
     20       1.5120      1.00000
     21       1.5542      1.00000
     22       1.5542      1.00000
     23       2.2028      1.00000
     24       2.2028      1.00000
     25       2.8665      1.00000
     26       2.8665      1.00000
     27       3.1670      1.00000
     28       3.1670      1.00000
     29       3.4443      0.86486
     30       3.4443      0.86485
     31       6.8439      0.00000
     32       6.8439      0.00000
     33       7.0839      0.00000
     34       7.0841      0.00000
     35       7.4034      0.00000
     36       7.4442      0.00000

 soft charge-density along one line, spin component           1
         0         1         2         3         4         5         6         7         8         9
 total charge-density along one line

[...]

 soft charge-density along one line, spin component           4
         0         1         2         3         4         5         6         7         8         9
 total charge-density along one line

------------------------ aborting loop because EDIFF is reached ----------------------------------------

  FORCE on cell =-STRESS in cart. coord.  units (eV):
  Direction    XX          YY          ZZ          XY          YZ          ZX
  Alpha Z    64.20129    64.20129    64.20129
  Ewald    -439.74121  -439.74123  -560.43629     0.00000     0.00000    -0.00000
  Hartree   292.10645   292.10646   174.24105    -0.00000    -0.00000    -0.00000
  E(xc)    -113.81887  -113.81887  -113.12318    -0.00000     0.00000     0.00000
  Local    -328.07508  -328.07507   -78.01561    -0.00000     0.00000     0.00000
  n-local   162.14125   160.23544   155.21263    -0.99183     0.00001    -0.00000
  augment   137.59482   137.59482   139.68191    -0.00000    -0.00000    -0.00000
  Kinetic   239.80316   231.14149   222.49687    -2.19137    -0.00001     0.00000
  Fock        0.00000     0.00000     0.00000     0.00000     0.00000     0.00000
  Total       8.92806     8.92806     4.25868     0.00000     0.00000    -0.00000
  in kB     125.86925   125.86925    60.03952     0.00000     0.00000    -0.00000

 VOLUME and BASIS-vectors are now :
  energy-cutoff  :      500.00
  volume of cell :      113.64
      direct lattice vectors                 reciprocal lattice vectors
     4.300140858  0.000000000  0.000000000     0.232550522  0.000000000  0.000000000
     0.000000000  4.300140858  0.000000000     0.000000000  0.232550522  0.000000000
     0.000000000  0.000000000  6.145861149     0.000000000  0.000000000  0.162711128

  length of vectors
     4.300140858  4.300140858  6.145861149     0.232550522  0.232550522  0.162711128

 FORCES acting on ions
    electron-ion (+dipol)            ewald-force                    non-local-force                 convergence-correction
   -.180E-14 -.588E-14 0.471E+02   0.261E-14 -.178E-15 -.473E+02   0.000E+00 0.000E+00 -.224E+00   0.566E-14 -.233E-15 0.699E-03
   -.629E-14 0.551E-14 -.471E+02   -.168E-14 -.547E-14 0.473E+02   0.827E-24 0.352E-23 0.224E+00   0.135E-14 0.211E-15 -.699E-03
   -.255E-13 -.568E-14 0.759E-06   -.341E-14 0.631E-14 0.425E-05   0.000E+00 0.000E+00 0.000E+00   -.555E-13 0.410E-14 -.532E-07
   0.106E-13 0.667E-13 0.965E-07   0.139E-14 0.780E-16 0.515E-06   0.000E+00 -.662E-23 0.000E+00   0.130E-14 0.762E-15 0.150E-07
   -.230E-13 0.606E-13 0.352E-06   -.109E-14 0.740E-15 -.355E-14   0.827E-24 -.310E-23 0.278E-16   -.472E-13 0.484E-14 -.359E-07

 POSITION                                       TOTAL-FORCE (eV/Angst)
      2.15007      0.00000      4.46027         0.000000      0.000000     -0.465000
      0.00000      2.15007      1.68559         0.000000      0.000000      0.465000
      0.00000      0.00000      0.00000        -0.000000      0.000000      0.000000
      2.15007      2.15007      3.07293         0.000000     -0.000000      0.000000
    total drift:                               -0.000000      0.000000      0.000000

  FREE ENERGIE OF THE ION-ELECTRON SYSTEM (eV)
  free  energy   TOTEN  =       -10.93338304 eV

  energy  without entropy=      -10.93014159  energy(sigma->0) =      -10.93176231

 Spin-Orbit-Coupling matrix elements

 Ion:    1  E_soc:     -0.0102547
 l=   1
     0.0000000    -0.0011360    -0.0028628
    -0.0011360     0.0000000    -0.0013152
    -0.0028628    -0.0013152     0.0000000
 l=   2
     0.0000000     0.0000006     0.0000000     0.0000006     0.0000045
     0.0000006     0.0000000    -0.0000213     0.0000700     0.0000373
     0.0000000    -0.0000213     0.0000000     0.0000397     0.0000000
     0.0000006     0.0000700     0.0000397     0.0000000     0.0000552
     0.0000045     0.0000373     0.0000000     0.0000552     0.0000000
 l=   3
     0.0000000     0.0000000     0.0000000     0.0000000     0.0000000     0.0000000     0.0000000
     0.0000000     0.0000000     0.0000000     0.0000000     0.0000000     0.0000000     0.0000000
     0.0000000     0.0000000     0.0000000     0.0000000     0.0000000     0.0000000     0.0000000
     0.0000000     0.0000000     0.0000000     0.0000000     0.0000000     0.0000000     0.0000000
     0.0000000     0.0000000     0.0000000     0.0000000     0.0000000     0.0000000     0.0000000
     0.0000000     0.0000000     0.0000000     0.0000000     0.0000000     0.0000000     0.0000000
     0.0000000     0.0000000     0.0000000     0.0000000     0.0000000     0.0000000     0.0000000

[...]

 Ion:    4  E_soc:     -0.0412256
 l=   1
     0.0000000    -0.0062612    -0.0081044
    -0.0062612     0.0000000    -0.0062612
    -0.0081044    -0.0062612     0.0000000
 l=   2
     0.0000000     0.0000001     0.0000000     0.0000001    -0.0000081
     0.0000001     0.0000000    -0.0000085     0.0000323     0.0000034
     0.0000000    -0.0000085     0.0000000    -0.0000085     0.0000000
     0.0000001     0.0000323    -0.0000085     0.0000000     0.0000034
    -0.0000081     0.0000034     0.0000000     0.0000034     0.0000000
 l=   3
     0.0000000     0.0000000     0.0000000     0.0000000     0.0000000     0.0000000     0.0000000
     0.0000000     0.0000000     0.0000000     0.0000000     0.0000000     0.0000000     0.0000000
     0.0000000     0.0000000     0.0000000     0.0000000     0.0000000     0.0000000     0.0000000
     0.0000000     0.0000000     0.0000000     0.0000000     0.0000000     0.0000000     0.0000000
     0.0000000     0.0000000     0.0000000     0.0000000     0.0000000     0.0000000     0.0000000
     0.0000000     0.0000000     0.0000000     0.0000000     0.0000000     0.0000000     0.0000000
     0.0000000     0.0000000     0.0000000     0.0000000     0.0000000     0.0000000     0.0000000