 vasp.5.4.4.18Apr17-6-g9f103f2a35 (build Dec 22 2021 20:15:33) complex

 executed on             LinuxIFC date 2019.05.17  18:14:59

 INCAR:
 POTCAR:    PAW_PBE Ga 08Apr2002
 POTCAR:    PAW_PBE Bi_d 06Sep2000
 POTCAR:    PAW_PBE As 22Sep2009
 POTCAR:    PAW_PBE Ga 08Apr2002
   VRHFIN =Ga: s2p1

   TITEL  = PAW_PBE Ga 08Apr2002
   POMASS =   69.723; ZVAL   =    3.000    mass and valenz
   ENMAX  =  134.678; ENMIN  =  101.009 eV

 POTCAR:    PAW_PBE Bi_d 06Sep2000
   VRHFIN =Bi:

   TITEL  = PAW_PBE Bi_d 06Sep2000
   POMASS =  208.980; ZVAL   =   15.000    mass and valenz
   ENMAX  =  242.839; ENMIN  =  182.129 eV

 POTCAR:    PAW_PBE As 22Sep2009
   VRHFIN =As: s2p3

   TITEL  = PAW_PBE As 22Sep2009
   POMASS =   74.922; ZVAL   =    5.000    mass and valenz
   ENMAX  =  208.702; ENMIN  =  156.526 eV

 Optimization of the real space projectors (new method)

 maximal supplied QI-value         = 14.36
 optimisation between [QCUT,QGAM] = [ 11.35, 22.84] = [ 36.05,146.02] Ry
 Optimized for a Real-space Cutoff    1.43 Angstroem

   l    n(q)    QCUT    max X(q) W(low)/X(q) W(high)/X(q)  e(spline)
   0     10    11.346    81.156    0.45E-04    0.70E-04    0.62E-07
   0     10    11.346    65.205    0.45E-04    0.72E-04    0.63E-07
   1      9    11.346    44.874    0.15E-03    0.63E-04    0.19E-06
   1      9    11.346    25.010    0.16E-03    0.59E-04    0.19E-06
   2      9    11.346     5.217    0.61E-04    0.14E-03    0.62E-07
 Optimization of the real space projectors (new method)

[...]

   l    n(q)    QCUT    max X(q) W(low)/X(q) W(high)/X(q)  e(spline)
   2      9    11.338     4.360    0.29E-04    0.91E-04    0.84E-07
   2      9    11.338     7.451    0.91E-04    0.83E-04    0.19E-06
   0      9    11.338    21.015    0.59E-04    0.59E-05    0.80E-07
   0      9    11.338     9.183    0.87E-04    0.88E-05    0.12E-06
   1      9    11.338    25.904    0.84E-04    0.19E-03    0.11E-06
   1      9    11.338    13.553    0.73E-04    0.17E-03    0.10E-06
 Optimization of the real space projectors (new method)

 maximal supplied QI-value         = 17.95
 optimisation between [QCUT,QGAM] = [ 11.31, 22.80] = [ 35.82,145.56] Ry
 Optimized for a Real-space Cutoff    1.31 Angstroem

   l    n(q)    QCUT    max X(q) W(low)/X(q) W(high)/X(q)  e(spline)
   0      9    11.310   117.213    0.44E-04    0.60E-04    0.75E-07
   0      9    11.310    98.411    0.42E-04    0.60E-04    0.74E-07
   1      8    11.310    10.093    0.11E-03    0.13E-03    0.10E-06
   1      8    11.310     5.228    0.97E-04    0.12E-03    0.93E-07
   2      8    11.310     4.067    0.36E-04    0.60E-04    0.60E-07
  PAW_PBE Ga 08Apr2002                  :
  PAW_PBE Bi_d 06Sep2000                :
  PAW_PBE As 22Sep2009                  :

 POSCAR: Ga2 Bi1 As1
  positions in direct lattice
 exchange correlation table for  LEXCH =        8
   RHO(1)=    0.500       N(1)  =     2000
   RHO(2)=  100.500       N(2)  =     4000

 ion  position               nearest neighbor table
   1  0.500  0.000  0.726-   4 2.56   4 2.56   3 2.73   3 2.73
   2  0.000  0.500  0.274-   4 2.56   4 2.56   3 2.73   3 2.73
   3  0.000  0.000  0.000-   1 2.73   1 2.73   2 2.73   2 2.73
   4  0.500  0.500  0.500-   2 2.56   2 2.56   1 2.56   1 2.56

  LATTYP: Found a simple tetragonal cell.
 ALAT       =     4.3001408577
 C/A-ratio  =     1.4292232167

  Lattice vectors:

 A1 = (   4.3001408577,   0.0000000000,   0.0000000000)
 A2 = (   0.0000000000,   4.3001408577,   0.0000000000)
 A3 = (   0.0000000000,   0.0000000000,   6.1458611488)

Analysis of symmetry for initial positions (statically):
 Subroutine PRICEL returns:
 Original cell was already a primitive cell.

 Routine SETGRP: Setting up the symmetry group for a
 simple tetragonal supercell.

 Subroutine GETGRP returns: Found  8 space group operations
 (whereof  8 operations were pure point group operations)
 out of a pool of 16 trial point group operations.

The static configuration has the point symmetry D_2d.

Analysis of symmetry for dynamics (positions and initial velocities):
 Subroutine PRICEL returns:
 Original cell was already a primitive cell.

[...]

The dynamic configuration has the point symmetry D_2d.

Analysis of structural, dynamic, and magnetic symmetry:
 Subroutine PRICEL returns:
 Original cell was already a primitive cell.

 Routine SETGRP: Setting up the symmetry group for a
 simple tetragonal supercell.

 Subroutine GETGRP returns: Found  1 space group operations
 (whereof  1 operations were pure point group operations)
 out of a pool of 16 trial point group operations.

The (compounded) configuration has the point symmetry C_1 .

 Subroutine INISYM returns: Found  1 space group operations
 (whereof  1 operations are pure point group operations),
 and found     1 'primitive' translations

 KPOINTS: MP

Automatic generation of k-mesh.
Space group operators:
 irot       det(A)        alpha          n_x          n_y          n_z        tau_x        tau_y        tau_z
    1     1.000000     0.000001     1.000000     0.000000     0.000000     0.000000     0.000000     0.000000

 Subroutine IBZKPT returns following result:

 Found     75 irreducible k-points:

 Following reciprocal coordinates:
            Coordinates               Weight
  0.000000  0.000000  0.000000      1.000000
  0.200000  0.000000  0.000000      1.000000
  0.400000  0.000000  0.000000      1.000000
 -0.400000  0.000000  0.000000      1.000000
 -0.200000  0.000000  0.000000      1.000000
  0.000000  0.200000  0.000000      1.000000
  0.200000  0.200000  0.000000      1.000000
  0.400000  0.200000  0.000000      1.000000
 -0.400000  0.200000  0.000000      1.000000
 -0.200000  0.200000  0.000000      1.000000
  0.000000  0.400000  0.000000      1.000000
  0.200000  0.400000  0.000000      1.000000
  0.400000  0.400000  0.000000      1.000000
 -0.400000  0.400000  0.000000      1.000000
 -0.200000  0.400000  0.000000      1.000000
  0.000000 -0.400000  0.000000      1.000000
  0.200000 -0.400000  0.000000      1.000000
  0.400000 -0.400000  0.000000      1.000000
 -0.400000 -0.400000  0.000000      1.000000
 -0.200000 -0.400000  0.000000      1.000000
  0.000000 -0.200000  0.000000      1.000000
  0.200000 -0.200000  0.000000      1.000000
  0.400000 -0.200000  0.000000      1.000000
 -0.400000 -0.200000  0.000000      1.000000
 -0.200000 -0.200000  0.000000      1.000000
  0.000000  0.000000  0.333333      1.000000
  0.200000  0.000000  0.333333      1.000000
  0.400000  0.000000  0.333333      1.000000
 -0.400000  0.000000  0.333333      1.000000
 -0.200000  0.000000  0.333333      1.000000
  0.000000  0.200000  0.333333      1.000000
  0.200000  0.200000  0.333333      1.000000
  0.400000  0.200000  0.333333      1.000000
 -0.400000  0.200000  0.333333      1.000000
 -0.200000  0.200000  0.333333      1.000000
  0.000000  0.400000  0.333333      1.000000
  0.200000  0.400000  0.333333      1.000000
  0.400000  0.400000  0.333333      1.000000
 -0.400000  0.400000  0.333333      1.000000
 -0.200000  0.400000  0.333333      1.000000
  0.000000 -0.400000  0.333333      1.000000
  0.200000 -0.400000  0.333333      1.000000
  0.400000 -0.400000  0.333333      1.000000
 -0.400000 -0.400000  0.333333      1.000000
 -0.200000 -0.400000  0.333333      1.000000
  0.000000 -0.200000  0.333333      1.000000
  0.200000 -0.200000  0.333333      1.000000
  0.400000 -0.200000  0.333333      1.000000
 -0.400000 -0.200000  0.333333      1.000000
 -0.200000 -0.200000  0.333333      1.000000
  0.000000  0.000000 -0.333333      1.000000
  0.200000  0.000000 -0.333333      1.000000
  0.400000  0.000000 -0.333333      1.000000
 -0.400000  0.000000 -0.333333      1.000000
 -0.200000  0.000000 -0.333333      1.000000
  0.000000  0.200000 -0.333333      1.000000
  0.200000  0.200000 -0.333333      1.000000
  0.400000  0.200000 -0.333333      1.000000
 -0.400000  0.200000 -0.333333      1.000000
 -0.200000  0.200000 -0.333333      1.000000
  0.000000  0.400000 -0.333333      1.000000
  0.200000  0.400000 -0.333333      1.000000
  0.400000  0.400000 -0.333333      1.000000
 -0.400000  0.400000 -0.333333      1.000000
 -0.200000  0.400000 -0.333333      1.000000
  0.000000 -0.400000 -0.333333      1.000000
  0.200000 -0.400000 -0.333333      1.000000
  0.400000 -0.400000 -0.333333      1.000000
 -0.400000 -0.400000 -0.333333      1.000000
 -0.200000 -0.400000 -0.333333      1.000000
  0.000000 -0.200000 -0.333333      1.000000
  0.200000 -0.200000 -0.333333      1.000000
  0.400000 -0.200000 -0.333333      1.000000
 -0.400000 -0.200000 -0.333333      1.000000
 -0.200000 -0.200000 -0.333333      1.000000

 Following cartesian coordinates:
            Coordinates               Weight
  0.000000  0.000000  0.000000      1.000000
  0.046510  0.000000  0.000000      1.000000
  0.093020  0.000000  0.000000      1.000000
 -0.093020  0.000000  0.000000      1.000000
 -0.046510  0.000000  0.000000      1.000000
  0.000000  0.046510  0.000000      1.000000
  0.046510  0.046510  0.000000      1.000000
  0.093020  0.046510  0.000000      1.000000
 -0.093020  0.046510  0.000000      1.000000
 -0.046510  0.046510  0.000000      1.000000
  0.000000  0.093020  0.000000      1.000000
  0.046510  0.093020  0.000000      1.000000
  0.093020  0.093020  0.000000      1.000000
 -0.093020  0.093020  0.000000      1.000000
 -0.046510  0.093020  0.000000      1.000000
  0.000000 -0.093020  0.000000      1.000000
  0.046510 -0.093020  0.000000      1.000000
  0.093020 -0.093020  0.000000      1.000000
 -0.093020 -0.093020  0.000000      1.000000
 -0.046510 -0.093020  0.000000      1.000000
  0.000000 -0.046510  0.000000      1.000000
  0.046510 -0.046510  0.000000      1.000000
  0.093020 -0.046510  0.000000      1.000000
 -0.093020 -0.046510  0.000000      1.000000
 -0.046510 -0.046510  0.000000      1.000000
  0.000000  0.000000  0.054237      1.000000
  0.046510  0.000000  0.054237      1.000000
  0.093020  0.000000  0.054237      1.000000
 -0.093020  0.000000  0.054237      1.000000
 -0.046510  0.000000  0.054237      1.000000
  0.000000  0.046510  0.054237      1.000000
  0.046510  0.046510  0.054237      1.000000
  0.093020  0.046510  0.054237      1.000000
 -0.093020  0.046510  0.054237      1.000000
 -0.046510  0.046510  0.054237      1.000000
  0.000000  0.093020  0.054237      1.000000
  0.046510  0.093020  0.054237      1.000000
  0.093020  0.093020  0.054237      1.000000
 -0.093020  0.093020  0.054237      1.000000
 -0.046510  0.093020  0.054237      1.000000
  0.000000 -0.093020  0.054237      1.000000
  0.046510 -0.093020  0.054237      1.000000
  0.093020 -0.093020  0.054237      1.000000
 -0.093020 -0.093020  0.054237      1.000000
 -0.046510 -0.093020  0.054237      1.000000
  0.000000 -0.046510  0.054237      1.000000
  0.046510 -0.046510  0.054237      1.000000
  0.093020 -0.046510  0.054237      1.000000
 -0.093020 -0.046510  0.054237      1.000000
 -0.046510 -0.046510  0.054237      1.000000
  0.000000  0.000000 -0.054237      1.000000
  0.046510  0.000000 -0.054237      1.000000
  0.093020  0.000000 -0.054237      1.000000
 -0.093020  0.000000 -0.054237      1.000000
 -0.046510  0.000000 -0.054237      1.000000
[...]
 k-point 33 :   0.4000 0.2000 0.3333  plane waves:    5788
 k-point 34 :  -0.4000 0.2000 0.3333  plane waves:    5788
 k-point 35 :  -0.2000 0.2000 0.3333  plane waves:    5744
 k-point 36 :   0.0000 0.4000 0.3333  plane waves:    5764
 k-point 37 :   0.2000 0.4000 0.3333  plane waves:    5788
 k-point 38 :   0.4000 0.4000 0.3333  plane waves:    5780
 k-point 39 :  -0.4000 0.4000 0.3333  plane waves:    5780
 k-point 40 :  -0.2000 0.4000 0.3333  plane waves:    5788
 k-point 41 :   0.0000-0.4000 0.3333  plane waves:    5764
 k-point 42 :   0.2000-0.4000 0.3333  plane waves:    5788
 k-point 43 :   0.4000-0.4000 0.3333  plane waves:    5780
 k-point 44 :  -0.4000-0.4000 0.3333  plane waves:    5780
 k-point 45 :  -0.2000-0.4000 0.3333  plane waves:    5788
 k-point 46 :   0.0000-0.2000 0.3333  plane waves:    5764
 k-point 47 :   0.2000-0.2000 0.3333  plane waves:    5744
 k-point 48 :   0.4000-0.2000 0.3333  plane waves:    5788
 k-point 49 :  -0.4000-0.2000 0.3333  plane waves:    5788
 k-point 50 :  -0.2000-0.2000 0.3333  plane waves:    5744
 k-point 51 :   0.0000 0.0000-0.3333  plane waves:    5748
 k-point 52 :   0.2000 0.0000-0.3333  plane waves:    5764
 k-point 53 :   0.4000 0.0000-0.3333  plane waves:    5764
 k-point 54 :  -0.4000 0.0000-0.3333  plane waves:    5764
 k-point 55 :  -0.2000 0.0000-0.3333  plane waves:    5764
 k-point 56 :   0.0000 0.2000-0.3333  plane waves:    5764
 k-point 57 :   0.2000 0.2000-0.3333  plane waves:    5744
 k-point 58 :   0.4000 0.2000-0.3333  plane waves:    5788
 k-point 59 :  -0.4000 0.2000-0.3333  plane waves:    5788
 k-point 60 :  -0.2000 0.2000-0.3333  plane waves:    5744
 k-point 61 :   0.0000 0.4000-0.3333  plane waves:    5764
 k-point 62 :   0.2000 0.4000-0.3333  plane waves:    5788
 k-point 63 :   0.4000 0.4000-0.3333  plane waves:    5780
 k-point 64 :  -0.4000 0.4000-0.3333  plane waves:    5780
 k-point 65 :  -0.2000 0.4000-0.3333  plane waves:    5788
 k-point 66 :   0.0000-0.4000-0.3333  plane waves:    5764
 k-point 67 :   0.2000-0.4000-0.3333  plane waves:    5788
 k-point 68 :   0.4000-0.4000-0.3333  plane waves:    5780
 k-point 69 :  -0.4000-0.4000-0.3333  plane waves:    5780
 k-point 70 :  -0.2000-0.4000-0.3333  plane waves:    5788
 k-point 71 :   0.0000-0.2000-0.3333  plane waves:    5764
 k-point 72 :   0.2000-0.2000-0.3333  plane waves:    5744
 k-point 73 :   0.4000-0.2000-0.3333  plane waves:    5788
 k-point 74 :  -0.4000-0.2000-0.3333  plane waves:    5788
 k-point 75 :  -0.2000-0.2000-0.3333  plane waves:    5744

 maximum and minimum number of plane-waves per node :       746      686

 maximum number of plane-waves:      5788
 maximum index in each direction:
   IXMAX=    8   IYMAX=    8   IZMAX=   11
   IXMIN=   -8   IYMIN=   -8   IZMIN=  -11

 real space projection operators:
  max/ min on nodes  :        275.24        258.95

 parallel 3D FFT for wavefunctions:
    minimum data exchange during FFTs selected (reduces bandwidth)
 parallel 3D FFT for charge:
    minimum data exchange during FFTs selected (reduces bandwidth)

 Broyden mixing: mesh for mixing (old mesh)
   NGX = 15   NGY = 15   NGZ = 23
  (NGX  = 64   NGY  = 64   NGZ  = 96)
  gives a total of   5175 points

 initial charge density was supplied:
 charge density of overlapping atoms calculated
 number of electron      26.0000000 magnetization       4.0000000      4.0000000      4.0000000
 keeping initial charge density in first step

 Maximum index for non-local projection operator          678
 Maximum index for augmentation-charges         1186 (set IRDMAX)

 First call to EWALD:  gamma=   0.366
 Maximum number of real-space cells 3x 3x 2
 Maximum number of reciprocal cells 2x 2x 3

--------------------------------------- Iteration      1(   1)  ---------------------------------------

 eigenvalue-minimisations  :  7216
 total energy-change (2. order) : 0.2091621E+03  (-0.1074160E+04)
 number of electron      26.0000000 magnetization       4.0000000      4.0000000      4.0000000
 augmentation part       26.0000000 magnetization       4.0000000      4.0000000      4.0000000

 Free energy of the ion-electron system (eV)
  alpha Z        PSCENC =        64.20128509
  Ewald energy   TEWEN  =     -1439.91766544
  -Hartree energ DENC   =      -749.41397116
  -exchange      EXHF   =         0.00000000
  -V(xc)+E(xc)   XCENC  =        -0.63881372
  PAW double counting   =      1945.46521363    -1846.94975616
  entropy T*S    EENTRO =        -0.00251939
  eigenvalues    EBANDS =       -10.70490761
  atomic energy  EATOM  =      2247.12322143
  Solvation  Ediel_sol  =         0.00000000
  free energy    TOTEN  =       209.16208666 eV

  energy without entropy =      209.16460605  energy(sigma->0) =      209.16292646

[...]

 eigenvalue-minimisations  :  7496
 total energy-change (2. order) :-0.1998273E+03  (-0.1893605E+03)
 number of electron      26.0000000 magnetization       4.0000000      4.0000000      4.0000000
 augmentation part       26.0000000 magnetization       4.0000000      4.0000000      4.0000000

[...]

 Broyden mixing:
  rms(total) = 0.10878E+01    rms(broyden)= 0.10878E+01
  rms(prec ) = 0.11726E+01
  weight for this iteration     100.00

[...]

 eigenvalues of (default mixing * dielectric matrix)
  average eigenvalue GAMMA=   0.8145
  0.8145

[...]

 eigenvalue-minimisations  :  8600
 total energy-change (2. order) : 0.1468600E-02  (-0.1165299E-02)
 number of electron      26.0000008 magnetization      -0.0178572     -0.0178539     -0.0170233
 augmentation part        3.9539662 magnetization      -0.0107085     -0.0106935     -0.0102195

[...]

 Broyden mixing:
  rms(total) = 0.18060E-03    rms(broyden)= 0.18060E-03
  rms(prec ) = 0.26548E-03
  weight for this iteration     100.00

 eigenvalues of (default mixing * dielectric matrix)
  average eigenvalue GAMMA=   1.3710
  3.1189  2.4450  2.1269  1.3384  1.0383  0.8941  0.7530  0.7530  0.6212  0.6212

[...]

--------------------------------------- Iteration      1(  16)  ---------------------------------------

 eigenvalue-minimisations  :  7216
 total energy-change (2. order) :-0.3402156E-06  (-0.5746679E-07)
 number of electron      26.0000008 magnetization      -0.0000458     -0.0000458     -0.0000425
 augmentation part        3.9562016 magnetization      -0.0000370     -0.0000367     -0.0000315

 Free energy of the ion-electron system (eV)
  alpha Z        PSCENC =        64.20128509
  Ewald energy   TEWEN  =     -1439.91766544
  -Hartree energ DENC   =      -754.75042804
  -exchange      EXHF   =         0.00000000
  -V(xc)+E(xc)   XCENC  =        -0.90707492
  PAW double counting   =      2402.07749782    -2307.73012214
  entropy T*S    EENTRO =        -0.00179523
  eigenvalues    EBANDS =      -225.70102189
  atomic energy  EATOM  =      2247.12322143
  Solvation  Ediel_sol  =         0.00000000
  free energy    TOTEN  =       -15.60610334 eV

  energy without entropy =      -15.60430811  energy(sigma->0) =      -15.60550493

 average (electrostatic) potential at core
  the test charge radii are     1.2767  1.0856  1.0621
  (the norm of the test charge is              1.0000)
       1 -14.6598       2 -14.6598       3-107.2292       4 -51.6291

 E-fermi :   3.2315     XC(G=0):  -8.7460     alpha+bet : -8.3023

 k-point     1 :       0.0000    0.0000    0.0000
  band No.  band energies     occupation
      1     -20.9031      1.00000
      2     -20.9031      1.00000
      3     -20.8971      1.00000
      4     -20.8971      1.00000
      5     -17.9583      1.00000
      6     -17.9583      1.00000
      7     -17.9415      1.00000
      8     -17.9415      1.00000
      9     -17.9291      1.00000
     10     -17.9291      1.00000
     11      -9.1449      1.00000
     12      -9.1449      1.00000
     13      -7.3909      1.00000
     14      -7.3909      1.00000
     15      -3.5562      1.00000
     16      -3.5562      1.00000
     17       0.2844      1.00000
     18       0.2844      1.00000
     19       0.5737      1.00000
     20       0.5737      1.00000
     21       1.8570      1.00000
     22       1.8570      1.00000
     23       2.1728      1.00000
     24       2.1728      1.00000
     25       3.3267      0.14335
     26       3.3267      0.14333
     27       3.6285     -0.00839
     28       3.6285     -0.00839
     29       4.1756     -0.00000
     30       4.1757     -0.00000
     31       4.3942     -0.00000
     32       4.3942     -0.00000
     33       6.0617     -0.00000
     34       6.0617     -0.00000
     35       6.2775     -0.00000
     36       6.2775     -0.00000
     37       6.4172     -0.00000
     38       6.4172     -0.00000
     39       8.8975      0.00000
     40       8.8976      0.00000
     41      11.1512      0.00000
     42      11.1513      0.00000
     43      11.5965      0.00000
     44      11.5966      0.00000
     45      12.0748      0.00000
     46      12.0749      0.00000
     47      12.1949      0.00000
     48      12.1968      0.00000

[...]

 k-point    75 :      -0.2000   -0.2000   -0.3333
  band No.  band energies     occupation
      1     -20.9049      1.00000
      2     -20.9033      1.00000
      3     -20.8960      1.00000
      4     -20.8931      1.00000
      5     -17.9602      1.00000
      6     -17.9527      1.00000
      7     -17.9422      1.00000
      8     -17.9396      1.00000
      9     -17.9295      1.00000
     10     -17.9270      1.00000
     11      -8.4332      1.00000
     12      -8.4330      1.00000
     13      -7.7692      1.00000
     14      -7.7667      1.00000
     15      -2.9678      1.00000
     16      -2.8063      1.00000
     17      -1.7472      1.00000
     18      -1.6525      1.00000
     19      -0.3176      1.00000
     20      -0.0279      1.00000
     21       0.6387      1.00000
     22       0.7131      1.00000
     23       1.0138      1.00000
     24       1.6857      1.00000
     25       2.2850      1.00000
     26       2.4755      1.00000
     27       4.5206     -0.00000
     28       4.7205     -0.00000
     29       5.4220     -0.00000
     30       5.7597     -0.00000
     31       6.5100     -0.00000
     32       6.5930     -0.00000
     33       6.6059     -0.00000
     34       6.8346     -0.00000
     35       6.9876     -0.00000
     36       7.0137     -0.00000
     37       7.6543     -0.00000
     38       8.0956     -0.00000
     39       8.2829     -0.00000
     40       8.3558     -0.00000
     41       9.4000      0.00000
     42       9.7376      0.00000
     43      10.3661      0.00000
     44      10.4117      0.00000
     45      11.2014      0.00000
     46      11.2693      0.00000
     47      11.5448      0.00000
     48      11.6024      0.00000

 soft charge-density along one line, spin component           1
         0         1         2         3         4         5         6         7         8         9
 total charge-density along one line

[...]

 soft charge-density along one line, spin component           4
         0         1         2         3         4         5         6         7         8         9
 total charge-density along one line

------------------------ aborting loop because EDIFF is reached ----------------------------------------

  FORCE on cell =-STRESS in cart. coord.  units (eV):
  Direction    XX          YY          ZZ          XY          YZ          ZX
  Alpha Z    64.20129    64.20129    64.20129
  Ewald    -439.74121  -439.74123  -560.43629     0.00000     0.00000    -0.00000
  Hartree   290.94673   290.94673   172.85878     0.00000    -0.00000     0.00000
  E(xc)    -113.08953  -113.08952  -113.02567     0.00000    -0.00000    -0.00000
  Local    -321.62638  -321.62635   -82.33057    -0.00000    -0.00000    -0.00000
  n-local   155.83704   155.83703   155.75987    -0.00000     0.00000     0.00001
  augment   138.69475   138.69475   138.74168    -0.00000     0.00000     0.00000
  Kinetic   225.23224   225.23224   224.39840     0.00000    -0.00000    -0.00000
  Fock        0.00000     0.00000     0.00000     0.00000     0.00000     0.00000
  Total       0.45493     0.45492     0.16749    -0.00000     0.00000     0.00000
  in kB       6.41361     6.41361     2.36134    -0.00002     0.00006     0.00006

 VOLUME and BASIS-vectors are now :
  energy-cutoff  :      500.00
  volume of cell :      113.64
      direct lattice vectors                 reciprocal lattice vectors
     4.300140858  0.000000000  0.000000000     0.232550522  0.000000000  0.000000000
     0.000000000  4.300140858  0.000000000     0.000000000  0.232550522  0.000000000
     0.000000000  0.000000000  6.145861149     0.000000000  0.000000000  0.162711128

  length of vectors
     4.300140858  4.300140858  6.145861149     0.232550522  0.232550522  0.162711128

 FORCES acting on ions
    electron-ion (+dipol)            ewald-force                    non-local-force                 convergence-correction
   0.190E-06 -.174E-05 0.476E+02   0.261E-14 -.178E-15 -.473E+02   -.221E-06 0.664E-06 -.395E+00   -.280E-06 0.935E-06 0.146E-03
   0.137E-05 -.257E-07 -.476E+02   -.168E-14 -.547E-14 0.473E+02   -.584E-06 0.187E-06 0.395E+00   -.791E-06 0.169E-06 -.146E-03
   0.221E-06 0.642E-06 -.267E-05   -.341E-14 0.631E-14 0.425E-05   -.289E-04 0.248E-04 0.136E-05   0.389E-04 -.380E-04 -.135E-05
   -.702E-05 0.848E-05 -.316E-06   0.139E-14 0.780E-16 0.515E-06   0.332E-05 -.390E-05 -.772E-07   0.397E-05 -.469E-05 0.121E-06
   -.524E-05 0.736E-05 0.152E-05   -.109E-14 0.740E-15 -.355E-14   -.264E-04 0.217E-04 0.945E-06   0.418E-04 -.416E-04 -.113E-05

 POSITION                                       TOTAL-FORCE (eV/Angst)
      2.15007      0.00000      4.46027        -0.000003      0.000003     -0.079972
      0.00000      2.15007      1.68559        -0.000003      0.000003      0.079971
      0.00000      0.00000      0.00000         0.000008     -0.000009      0.000001
      2.15007      2.15007      3.07293        -0.000002      0.000003     -0.000000
    total drift:                                0.000010     -0.000013      0.000001

  FREE ENERGIE OF THE ION-ELECTRON SYSTEM (eV)
  free  energy   TOTEN  =       -15.60610334 eV

  energy  without entropy=      -15.60430811  energy(sigma->0) =      -15.60550493

 writing wavefunctions

 Spin-Orbit-Coupling matrix elements

 Ion:    1  E_soc:     -0.0070382
 l=   1
     0.0000000    -0.0009503    -0.0013219
    -0.0009503     0.0000000    -0.0013018
    -0.0013219    -0.0013018     0.0000000
 l=   2
     0.0000000    -0.0000007     0.0000000     0.0000056    -0.0000017
    -0.0000007     0.0000000    -0.0000070     0.0000194     0.0000064
     0.0000000    -0.0000070     0.0000000     0.0000167     0.0000000
     0.0000056     0.0000194     0.0000167     0.0000000     0.0000162
    -0.0000017     0.0000064     0.0000000     0.0000162     0.0000000
 l=   3
     0.0000000     0.0000000     0.0000000     0.0000000     0.0000000     0.0000000     0.0000000
     0.0000000     0.0000000     0.0000000     0.0000000     0.0000000     0.0000000     0.0000000
     0.0000000     0.0000000     0.0000000     0.0000000     0.0000000     0.0000000     0.0000000
     0.0000000     0.0000000     0.0000000     0.0000000     0.0000000     0.0000000     0.0000000
     0.0000000     0.0000000     0.0000000     0.0000000     0.0000000     0.0000000     0.0000000
     0.0000000     0.0000000     0.0000000     0.0000000     0.0000000     0.0000000     0.0000000
     0.0000000     0.0000000     0.0000000     0.0000000     0.0000000     0.0000000     0.0000000

[...]

 Ion:    4  E_soc:     -0.0293282
 l=   1
     0.0000000    -0.0047984    -0.0050393
    -0.0047984     0.0000000    -0.0047984
    -0.0050393    -0.0047984     0.0000000
 l=   2
     0.0000000    -0.0000012     0.0000000    -0.0000012    -0.0000094
    -0.0000012     0.0000000    -0.0000079     0.0000016    -0.0000010
     0.0000000    -0.0000079     0.0000000    -0.0000079     0.0000000
    -0.0000012     0.0000016    -0.0000079     0.0000000    -0.0000010
    -0.0000094    -0.0000010     0.0000000    -0.0000010     0.0000000
 l=   3
     0.0000000     0.0000000     0.0000000     0.0000000     0.0000000     0.0000000     0.0000000
     0.0000000     0.0000000     0.0000000     0.0000000     0.0000000     0.0000000     0.0000000
     0.0000000     0.0000000     0.0000000     0.0000000     0.0000000     0.0000000     0.0000000
     0.0000000     0.0000000     0.0000000     0.0000000     0.0000000     0.0000000     0.0000000
     0.0000000     0.0000000     0.0000000     0.0000000     0.0000000     0.0000000     0.0000000
     0.0000000     0.0000000     0.0000000     0.0000000     0.0000000     0.0000000     0.0000000
     0.0000000     0.0000000     0.0000000     0.0000000     0.0000000     0.0000000     0.0000000