 vasp.5.4.4.18Apr17-6-g9f103f2a35 (build Dec 22 2021 20:00:30) complex

 executed on             LinuxIFC date 2019.05.21  00:51:46

 INCAR:
 POTCAR:    PAW_PBE Ga 08Apr2002
 POTCAR:    PAW_PBE Bi_d 06Sep2000
 POTCAR:    PAW_PBE As 22Sep2009
 POTCAR:    PAW_PBE Ga 08Apr2002
   VRHFIN =Ga: s2p1

   TITEL  = PAW_PBE Ga 08Apr2002
   POMASS =   69.723; ZVAL   =    3.000    mass and valenz
   ENMAX  =  134.678; ENMIN  =  101.009 eV

 POTCAR:    PAW_PBE Bi_d 06Sep2000
   VRHFIN =Bi:

   TITEL  = PAW_PBE Bi_d 06Sep2000
   POMASS =  208.980; ZVAL   =   15.000    mass and valenz
   ENMAX  =  242.839; ENMIN  =  182.129 eV

 POTCAR:    PAW_PBE As 22Sep2009
   VRHFIN =As: s2p3

   TITEL  = PAW_PBE As 22Sep2009
   POMASS =   74.922; ZVAL   =    5.000    mass and valenz
   ENMAX  =  208.702; ENMIN  =  156.526 eV

  PAW_PBE Ga 08Apr2002                  :
  PAW_PBE Bi_d 06Sep2000                :
  PAW_PBE As 22Sep2009                  :

 POSCAR: Ga2 Bi1 As1
  positions in direct lattice
 exchange correlation table for  LEXCH =        8
   RHO(1)=    0.500       N(1)  =     2000
   RHO(2)=  100.500       N(2)  =     4000

 ion  position               nearest neighbor table
   1  0.500  0.000  0.726-   4 2.56   4 2.56   3 2.73   3 2.73
   2  0.000  0.500  0.274-   4 2.56   4 2.56   3 2.73   3 2.73
   3  0.000  0.000  0.000-   1 2.73   1 2.73   2 2.73   2 2.73
   4  0.500  0.500  0.500-   2 2.56   2 2.56   1 2.56   1 2.56

  LATTYP: Found a simple tetragonal cell.
 ALAT       =     4.3001408577
 C/A-ratio  =     1.4292232167

  Lattice vectors:

 A1 = (   4.3001408577,   0.0000000000,   0.0000000000)
 A2 = (   0.0000000000,   4.3001408577,   0.0000000000)
 A3 = (   0.0000000000,   0.0000000000,   6.1458611488)

Analysis of symmetry for initial positions (statically):
 Subroutine PRICEL returns:
 Original cell was already a primitive cell.

 Routine SETGRP: Setting up the symmetry group for a
 simple tetragonal supercell.

 Subroutine GETGRP returns: Found  8 space group operations
 (whereof  8 operations were pure point group operations)
 out of a pool of 16 trial point group operations.

The static configuration has the point symmetry D_2d.

Analysis of symmetry for dynamics (positions and initial velocities):
 Subroutine PRICEL returns:
 Original cell was already a primitive cell.

 Routine SETGRP: Setting up the symmetry group for a
 simple tetragonal supercell.

 Subroutine GETGRP returns: Found  8 space group operations
 (whereof  8 operations were pure point group operations)
 out of a pool of 16 trial point group operations.

The dynamic configuration has the point symmetry D_2d.

 Subroutine INISYM returns: Found  8 space group operations
 (whereof  8 operations are pure point group operations),
 and found     1 'primitive' translations

 KPOINTS: K-points alon1g high symmetry lines
  interpolating k-points between supplied coordinates
  k-points in reciprocal lattice
Space group operators:
 irot       det(A)        alpha          n_x          n_y          n_z        tau_x        tau_y        tau_z
    1     1.000000     0.000001     1.000000     0.000000     0.000000     0.000000     0.000000     0.000000
    2    -1.000000    90.000000     0.000000     0.000000    -1.000000     0.000000     0.000000     0.000000
    3     1.000000   180.000000     0.000000     0.000000     1.000000     0.000000     0.000000     0.000000
    4    -1.000000    90.000000     0.000000     0.000000     1.000000     0.000000     0.000000     0.000000
    5    -1.000000   180.000000     0.000000     1.000000     0.000000     0.000000     0.000000     0.000000
    6     1.000000   180.000000     0.707107     0.707107     0.000000     0.000000     0.000000     0.000000
    7    -1.000000   180.000000     1.000000     0.000000     0.000000     0.000000     0.000000     0.000000
    8     1.000000   180.000000     0.707107    -0.707107     0.000000     0.000000     0.000000     0.000000

 SYSTEM =  Ga2BiAs
 POSCAR =  Ga2 Bi1 As1

 Startparameter for this run:
   NWRITE =      2    write-flag & timer
   PREC   = accura    normal or accurate (medium, high low for compatibility)
   ISTART =      1    job   : 0-new  1-cont  2-samecut
   ICHARG =     11    charge: 1-file 2-atom 10-const
   ISPIN  =      1    spin polarized calculation?
   LNONCOLLINEAR =      F non collinear calculations
   LSORBIT =      F    spin-orbit coupling
   INIWAV =      1    electr: 0-lowe 1-rand  2-diag
   LASPH  =      F    aspherical Exc in radial PAW
   METAGGA=      F    non-selfconsistent MetaGGA calc.

 Electronic Relaxation 1
   ENCUT  =  500.0 eV  36.75 Ry    6.06 a.u.   7.84  7.84 11.21*2*pi/ulx,y,z
   ENINI  =  500.0     initial cutoff
   ENAUG  =  462.8 eV  augmentation charge cutoff
   NELM   =     60;   NELMIN=  2; NELMDL=  0     # of ELM steps
   EDIFF  = 0.1E-04   stopping-criterion for ELM
   LREAL  =      F    real-space projection
   NLSPLINE    = F    spline interpolate recip. space projectors
   LCOMPAT=      F    compatible to vasp.4.4
   GGA_COMPAT  = T    GGA compatible to vasp.4.4-vasp.4.6
   LMAXPAW     = -100 max onsite density
   LMAXMIX     =    2 max onsite mixed and CHGCAR
   VOSKOWN=      0    Vosko Wilk Nusair interpolation
   ROPT   =    0.00000   0.00000   0.00000
 Ionic relaxation
   EDIFFG = -.1E-01   stopping-criterion for IOM
   NSW    =      0    number of steps for IOM
   NBLOCK =      1;   KBLOCK =      1    inner block; outer block
   IBRION =     -1    ionic relax: 0-MD 1-quasi-New 2-CG
   NFREE  =      0    steps in history (QN), initial steepest desc. (CG)
   ISIF   =      2    stress and relaxation
   IWAVPR =     10    prediction:  0-non 1-charg 2-wave 3-comb
   ISYM   =      2    0-nonsym 1-usesym 2-fastsym
   LCORR  =      T    Harris-Foulkes like correction to forces

   POTIM  = 0.5000    time-step for ionic-motion
   TEIN   =    0.0    initial temperature
   TEBEG  =    0.0;   TEEND  =   0.0 temperature during run
   SMASS  =  -3.00    Nose mass-parameter (am)
   estimated Nose-frequenzy (Omega)   =  0.10E-29 period in steps =****** mass=  -0.423E-27a.u.
   SCALEE = 1.0000    scale energy and forces
   NPACO  =    256;   APACO  = 16.0  distance and # of slots for P.C.
   PSTRESS=    0.0 pullay stress

  Mass of Ions in am
   POMASS =  69.72208.98 74.92
  Ionic Valenz
   ZVAL   =   3.00 15.00  5.00
  Atomic Wigner-Seitz radii
  virtual crystal weights
   VCA    =   1.00  1.00  1.00
   NELECT =      26.0000    total number of electrons
   NUPDOWN=      -1.0000    fix difference up-down

 DOS related values:
   EMIN   =  10.00;   EMAX   =-10.00  energy-range for DOS
   EFERMI =   0.00
   ISMEAR =     0;   SIGMA  =   0.05  broadening in eV -4-tet -1-fermi 0-gaus

 Electronic relaxation 2 (details)
   IALGO  =     38    algorithm
   LDIAG  =      T    sub-space diagonalisation (order eigenvalues)
   LSUBROT=      F    optimize rotation matrix (better conditioning)
   TURBO    =      0    0=normal 1=particle mesh
   IRESTART =      0    0=no restart 2=restart with 2 vectors
   NREBOOT  =      0    no. of reboots
   NMIN     =      0    reboot dimension
   EREF     =   0.00    reference energy to select bands
   IMIX   =      4    mixing-type and parameters
     AMIX     =   0.40;   BMIX     =  1.00
     AMIX_MAG =   1.60;   BMIX_MAG =  1.00
     AMIN     =   0.10
     WC   =   100.;   INIMIX=   1;  MIXPRE=   1;  MAXMIX= -45

 Intra band minimization:
   WEIMIN = 0.0000     energy-eigenvalue tresh-hold
   EBREAK =  0.13E-06  absolut break condition
   DEPER  =   0.30     relativ break condition

   TIME   =   0.40     timestep for ELM

  volume/ion in A,a.u.               =      28.41       191.73
  Fermi-wavevector in a.u.,A,eV,Ry     =   1.001267  1.892120 13.640326  1.002536
  Thomas-Fermi vector in A             =   2.133678

 Write flags
   LWAVE        =      T    write WAVECAR
   LDOWNSAMPLE  =      F    k-point downsampling of WAVECAR
   LCHARG       =      F    write CHGCAR
   LVTOT        =      F    write LOCPOT, total local potential
   LVHAR        =      F    write LOCPOT, Hartree potential only
   LELF         =      F    write electronic localiz. function (ELF)
   LORBIT       =     11    0 simple, 1 ext, 2 COOP (PROOUT), +10 PAW based schemes

 Dipole corrections
   LMONO  =      F    monopole corrections only (constant potential shift)
   LDIPOL =      F    correct potential (dipole corrections)
   IDIPOL =      0    1-x, 2-y, 3-z, 4-all directions
   EPSILON=  1.0000000 bulk dielectric constant

 Exchange correlation treatment:
   GGA     =    --    GGA type
   VOSKOWN=      0    Vosko Wilk Nusair interpolation
   LHFCALC =     F    Hartree Fock is set to
   LHFONE  =     F    Hartree Fock one center treatment
   AEXX    =    0.0000 exact exchange contribution

 Linear response parameters
   LEPSILON=     F    determine dielectric tensor
   LRPA    =     F    only Hartree local field effects (RPA)
   LNABLA  =     F    use nabla operator in PAW spheres
   LVEL    =     F    velocity operator in full k-point grid
   LINTERFAST=   F  fast interpolation
   KINTER  =     0    interpolate to denser k-point grid
   CSHIFT  =0.1000    complex shift for real part using Kramers Kronig
   OMEGAMAX=  -1.0    maximum frequency
   DEG_THRESHOLD= 0.2000000E-02 threshold for treating states as degnerate
   RTIME   =   -0.100 relaxation time in fs
  (WPLASMAI=    0.000 imaginary part of plasma frequency in eV, 0.658/RTIME)
   DFIELD  = 0.0000000 0.0000000 0.0000000 field for delta impulse in time

 Orbital magnetization related:
   ORBITALMAG=     F  switch on orbital magnetization
   LCHIMAG   =     F  perturbation theory with respect to B field
   DQ        =  0.001000  dq finite difference perturbation B field
   LLRAUG    =     F  two centre corrections for induced B field

 Static calculation
 charge density and potential remain constant during run
 non-spin polarized calculation
 Variant of blocked Davidson
 Davidson routine will perform the subspace rotation
 perform sub-space diagonalisation
    after iterative eigenvector-optimisation
 no mixing
 using additional bands            7
 reciprocal scheme for non local part
 use partial core corrections
 calculate Harris-corrections to forces
   (improved forces if not selfconsistent)
 use gradient corrections
 WARNING: stress and forces are not correct
  (second derivative of E(xc) not defined)
 use of overlap-Matrix (Vanderbilt PP)
 Gauss-broadening in eV      SIGMA  =   0.05

  energy-cutoff  :      500.00
  volume of cell :      113.64
      direct lattice vectors                 reciprocal lattice vectors
     4.300140858  0.000000000  0.000000000     0.232550522  0.000000000  0.000000000
     0.000000000  4.300140858  0.000000000     0.000000000  0.232550522  0.000000000
     0.000000000  0.000000000  6.145861149     0.000000000  0.000000000  0.162711128

  length of vectors
     4.300140858  4.300140858  6.145861149     0.232550522  0.232550522  0.162711128

 old parameters found on file WAVECAR:
  energy-cutoff  :      500.00
  volume of cell :      113.64
      direct lattice vectors                 reciprocal lattice vectors
     4.300140858  0.000000000  0.000000000     0.232550522  0.000000000  0.000000000
     0.000000000  4.300140858  0.000000000     0.000000000  0.232550522  0.000000000
     0.000000000  0.000000000  6.145861149     0.000000000  0.000000000  0.162711128

  length of vectors

 k-points in units of 2pi/SCALE and weight: K-points alon1g high symmetry lines
   0.11627526  0.11627526  0.00000000       0.028
   0.10570478  0.10570478  0.00000000       0.028
   0.09513430  0.09513430  0.00000000       0.028
   0.08456383  0.08456383  0.00000000       0.028
   0.07399335  0.07399335  0.00000000       0.028
   0.06342287  0.06342287  0.00000000       0.028
   0.05285239  0.05285239  0.00000000       0.028
   0.04228191  0.04228191  0.00000000       0.028
   0.03171143  0.03171143  0.00000000       0.028
   0.02114096  0.02114096  0.00000000       0.028
   0.01057048  0.01057048  0.00000000       0.028
   0.00000000  0.00000000  0.00000000       0.028
   0.00000000  0.00000000  0.00000000       0.028
   0.00000000  0.00000000  0.00739596       0.028
   0.00000000  0.00000000  0.01479192       0.028
   0.00000000  0.00000000  0.02218788       0.028
   0.00000000  0.00000000  0.02958384       0.028
   0.00000000  0.00000000  0.03697980       0.028
   0.00000000  0.00000000  0.04437576       0.028
   0.00000000  0.00000000  0.05177172       0.028
   0.00000000  0.00000000  0.05916768       0.028
   0.00000000  0.00000000  0.06656364       0.028
   0.00000000  0.00000000  0.07395960       0.028
   0.00000000  0.00000000  0.08135556       0.028
   0.00000000  0.00000000  0.08135556       0.028
   0.00000000  0.01057048  0.08135556       0.028
   0.00000000  0.02114096  0.08135556       0.028
   0.00000000  0.03171143  0.08135556       0.028
   0.00000000  0.04228191  0.08135556       0.028
   0.00000000  0.05285239  0.08135556       0.028
   0.00000000  0.06342287  0.08135556       0.028
   0.00000000  0.07399335  0.08135556       0.028
   0.00000000  0.08456383  0.08135556       0.028
   0.00000000  0.09513430  0.08135556       0.028
   0.00000000  0.10570478  0.08135556       0.028
   0.00000000  0.11627526  0.08135556       0.028

 k-points in reciprocal lattice and weights: K-points alon1g high symmetry lines
   0.50000000  0.50000000  0.00000000       0.028
   0.45454545  0.45454545  0.00000000       0.028
   0.40909091  0.40909091  0.00000000       0.028
   0.36363636  0.36363636  0.00000000       0.028
   0.31818182  0.31818182  0.00000000       0.028
   0.27272727  0.27272727  0.00000000       0.028
   0.22727273  0.22727273  0.00000000       0.028
   0.18181818  0.18181818  0.00000000       0.028
   0.13636364  0.13636364  0.00000000       0.028
   0.09090909  0.09090909  0.00000000       0.028
   0.04545455  0.04545455  0.00000000       0.028
   0.00000000  0.00000000  0.00000000       0.028
   0.00000000  0.00000000  0.00000000       0.028
   0.00000000  0.00000000  0.04545455       0.028
   0.00000000  0.00000000  0.09090909       0.028
   0.00000000  0.00000000  0.13636364       0.028
   0.00000000  0.00000000  0.18181818       0.028
   0.00000000  0.00000000  0.22727273       0.028
   0.00000000  0.00000000  0.27272727       0.028
   0.00000000  0.00000000  0.31818182       0.028
   0.00000000  0.00000000  0.36363636       0.028
   0.00000000  0.00000000  0.40909091       0.028
   0.00000000  0.00000000  0.45454545       0.028
   0.00000000  0.00000000  0.50000000       0.028
   0.00000000  0.00000000  0.50000000       0.028
   0.00000000  0.04545455  0.50000000       0.028
   0.00000000  0.09090909  0.50000000       0.028
   0.00000000  0.13636364  0.50000000       0.028
   0.00000000  0.18181818  0.50000000       0.028
   0.00000000  0.22727273  0.50000000       0.028
   0.00000000  0.27272727  0.50000000       0.028
   0.00000000  0.31818182  0.50000000       0.028
   0.00000000  0.36363636  0.50000000       0.028
   0.00000000  0.40909091  0.50000000       0.028
   0.00000000  0.45454545  0.50000000       0.028
   0.00000000  0.50000000  0.50000000       0.028

 position of ions in fractional coordinates (direct lattice)
   0.50000000  0.00000000  0.72573602
   0.00000000  0.50000000  0.27426400
   0.00000000  0.00000000  0.00000000
   0.50000000  0.50000000  0.50000000

 position of ions in cartesian coordinates  (Angst):
   2.15007043  0.00000000  4.46027279
   0.00000000  2.15007043  1.68558848
   0.00000000  0.00000000  0.00000000
   2.15007043  2.15007043  3.07293057

 k-point  1 :   0.5000 0.5000 0.0000  plane waves:    2880
 k-point  2 :   0.4545 0.4545 0.0000  plane waves:    2873
 k-point  3 :   0.4091 0.4091 0.0000  plane waves:    2881
 k-point  4 :   0.3636 0.3636 0.0000  plane waves:    2871
 k-point  5 :   0.3182 0.3182 0.0000  plane waves:    2889
 k-point  6 :   0.2727 0.2727 0.0000  plane waves:    2889
 k-point  7 :   0.2273 0.2273 0.0000  plane waves:    2883
 k-point  8 :   0.1818 0.1818 0.0000  plane waves:    2867
 k-point  9 :   0.1364 0.1364 0.0000  plane waves:    2879
 k-point 10 :   0.0909 0.0909 0.0000  plane waves:    2877
 k-point 11 :   0.0455 0.0455 0.0000  plane waves:    2875
 k-point 12 :   0.0000 0.0000 0.0000  plane waves:    2879
 k-point 13 :   0.0000 0.0000 0.0000  plane waves:    2879
 k-point 14 :   0.0000 0.0000 0.0455  plane waves:    2883
 k-point 15 :   0.0000 0.0000 0.0909  plane waves:    2879
 k-point 16 :   0.0000 0.0000 0.1364  plane waves:    2875
 k-point 17 :   0.0000 0.0000 0.1818  plane waves:    2875
 k-point 18 :   0.0000 0.0000 0.2273  plane waves:    2870
 k-point 19 :   0.0000 0.0000 0.2727  plane waves:    2874
 k-point 20 :   0.0000 0.0000 0.3182  plane waves:    2874
 k-point 21 :   0.0000 0.0000 0.3636  plane waves:    2882
 k-point 22 :   0.0000 0.0000 0.4091  plane waves:    2894
 k-point 23 :   0.0000 0.0000 0.4545  plane waves:    2886
 k-point 24 :   0.0000 0.0000 0.5000  plane waves:    2886
 k-point 25 :   0.0000 0.0000 0.5000  plane waves:    2886
 k-point 26 :   0.0000 0.0455 0.5000  plane waves:    2886
 k-point 27 :   0.0000 0.0909 0.5000  plane waves:    2886
 k-point 28 :   0.0000 0.1364 0.5000  plane waves:    2884
 k-point 29 :   0.0000 0.1818 0.5000  plane waves:    2866
 k-point 30 :   0.0000 0.2273 0.5000  plane waves:    2870
 k-point 31 :   0.0000 0.2727 0.5000  plane waves:    2882
 k-point 32 :   0.0000 0.3182 0.5000  plane waves:    2882
 k-point 33 :   0.0000 0.3636 0.5000  plane waves:    2900
 k-point 34 :   0.0000 0.4091 0.5000  plane waves:    2890
 k-point 35 :   0.0000 0.4545 0.5000  plane waves:    2896
 k-point 36 :   0.0000 0.5000 0.5000  plane waves:    2924

 maximum and minimum number of plane-waves per node :       379      341

 maximum number of plane-waves:      2924
 maximum index in each direction:
   IXMAX=    7   IYMAX=    7   IZMAX=   11
   IXMIN=   -8   IYMIN=   -8   IZMIN=  -11

 parallel 3D FFT for wavefunctions:
    minimum data exchange during FFTs selected (reduces bandwidth)
 parallel 3D FFT for charge:
    minimum data exchange during FFTs selected (reduces bandwidth)

 initial charge density was supplied:
 number of electron      26.0000008 magnetization
 keeping initial charge density in first step

 Maximum index for augmentation-charges         1186 (set IRDMAX)

 First call to EWALD:  gamma=   0.366
 Maximum number of real-space cells 3x 3x 2
 Maximum number of reciprocal cells 2x 2x 3

--------------------------------------- Iteration      1(   1)  ---------------------------------------

 eigenvalue-minimisations  :  1908
 total energy-change (2. order) :-0.8086424E+01  (-0.1919832E+02)
 number of electron      26.0000008 magnetization
 augmentation part       26.0000008 magnetization

 Free energy of the ion-electron system (eV)
  alpha Z        PSCENC =        64.20128509
  Ewald energy   TEWEN  =     -1439.91766544
  -Hartree energ DENC   =      -753.77007294
  -exchange      EXHF   =         0.00000000
  -V(xc)+E(xc)   XCENC  =        -0.92234579
  PAW double counting   =      2420.17782075    -2324.78632130
  entropy T*S    EENTRO =        -0.00618845
  eigenvalues    EBANDS =      -220.18615711
  atomic energy  EATOM  =      2247.12322143
  Solvation  Ediel_sol  =         0.00000000
  free energy    TOTEN  =        -8.08642377 eV

  energy without entropy =       -8.08023532  energy(sigma->0) =       -8.08332955

[...]

--------------------------------------- Iteration      1(   6)  ---------------------------------------

 eigenvalue-minimisations  :  1080
 total energy-change (2. order) :-0.2759857E-06  (-0.2761145E-06)
 number of electron      26.0000008 magnetization
 augmentation part       26.0000008 magnetization

 Free energy of the ion-electron system (eV)
  alpha Z        PSCENC =        64.20128509
  Ewald energy   TEWEN  =     -1439.91766544
  -Hartree energ DENC   =      -753.77007294
  -exchange      EXHF   =         0.00000000
  -V(xc)+E(xc)   XCENC  =        -0.92234579
  PAW double counting   =      2420.17782075    -2324.78632130
  entropy T*S    EENTRO =        -0.00371014
  eigenvalues    EBANDS =      -222.00695376
  atomic energy  EATOM  =      2247.12322143
  Solvation  Ediel_sol  =         0.00000000
  free energy    TOTEN  =        -9.90474212 eV

  energy without entropy =       -9.90103197  energy(sigma->0) =       -9.90288704

 average (electrostatic) potential at core
  the test charge radii are     1.2767  1.0856  1.0621
  (the norm of the test charge is              1.0000)
       1 -14.6572       2 -14.6572       3-107.4214       4 -51.6545

 E-fermi :   3.1374     XC(G=0):  -8.7548     alpha+bet : -8.3023

 k-point     1 :       0.5000    0.5000    0.0000
  band No.  band energies     occupation
      1     -19.2916      2.00000
      2     -19.2916      2.00000
      3     -19.2566      2.00000
      4     -19.2546      2.00000
      5     -19.2539      2.00000
      6      -7.4994      2.00000
      7      -7.3026      2.00000
      8      -3.5369      2.00000
      9      -3.5369      2.00000
     10       0.3221      2.00000
     11       0.5890      2.00000
     12       0.5890      2.00000
     13       0.8913      2.00000
     14       3.8700      0.00000
     15       4.2281      0.00000
     16       4.2281      0.00000
     17       4.6665      0.00000
     18      10.9485      0.00000
     19      11.0773      0.00000
     20      11.0773      0.00000

[...]

 k-point    36 :       0.0000    0.5000    0.5000
  band No.  band energies     occupation
      1     -19.2927      2.00000
      2     -19.2805      2.00000
      3     -19.2782      2.00000
      4     -19.2542      2.00000
      5     -19.2494      2.00000
      6      -8.0021      2.00000
      7      -7.8686      2.00000
      8      -3.4437      2.00000
      9      -3.0204      2.00000
     10       1.2745      2.00000
     11       1.8436      2.00000
     12       1.9511      2.00000
     13       2.6759      2.00000
     14       2.9288      2.00000
     15       3.2959      0.00001
     16       6.7616      0.00000
     17       6.9901      0.00000
     18       7.2964      0.00000
     19       7.4465      0.00000
     20       9.4024      0.00000

 soft charge-density along one line, spin component           1
         0         1         2         3         4         5         6         7         8         9
 total charge-density along one line

------------------------ aborting loop because EDIFF is reached ----------------------------------------

 total charge

# of ion       s       p       d       tot
    1        1.109   1.015   0.106   2.230
    2        1.140   0.998   0.108   2.246
    3        1.460   1.661   9.900  13.021
    4        1.275   1.578   0.023   2.877
tot          4.985   5.253  10.137  20.375

  FORCE on cell =-STRESS in cart. coord.  units (eV):
  Direction    XX          YY          ZZ          XY          YZ          ZX
  Alpha Z    64.20129    64.20129    64.20129
  Ewald    -439.74121  -439.74123  -560.43629     0.00000     0.00000    -0.00000
  Hartree   290.55320   290.55320   176.61435    -0.00000    -0.00000    -0.00000
  E(xc)    -113.40333  -113.40333  -112.41420     0.00000     0.00000     0.00000
  Local    -325.12162  -325.12161   -78.30958    -0.00000     0.00000    -0.00000
  n-local   165.46603   163.19762   157.16148    -1.16754     0.00000     0.00000
  augment   137.86976   137.86976   140.19027     0.00000    -0.00000    -0.00000
  Kinetic   239.36997   230.69919   221.92288    -2.26592    -0.00001    -0.00001
  Fock        0.00000     0.00000     0.00000     0.00000     0.00000     0.00000
  Total      13.72449    13.72449     8.93019     0.00000     0.00000     0.00000
  in kB     193.49005   193.49005   125.89928     0.00000     0.00000     0.00000

 VOLUME and BASIS-vectors are now :
  energy-cutoff  :      500.00
  volume of cell :      113.64
      direct lattice vectors                 reciprocal lattice vectors
     4.300140858  0.000000000  0.000000000     0.232550522  0.000000000  0.000000000
     0.000000000  4.300140858  0.000000000     0.000000000  0.232550522  0.000000000
     0.000000000  0.000000000  6.145861149     0.000000000  0.000000000  0.162711128

  length of vectors
     4.300140858  4.300140858  6.145861149     0.232550522  0.232550522  0.162711128

 FORCES acting on ions
    electron-ion (+dipol)            ewald-force                    non-local-force                 convergence-correction
   -.555E-14 0.578E-14 0.462E+02   0.261E-14 -.178E-15 -.473E+02   0.000E+00 0.000E+00 -.104E+00   0.377E-14 0.129E-15 0.915E+00
   -.221E-14 -.826E-15 -.462E+02   -.168E-14 -.547E-14 0.473E+02   0.000E+00 0.000E+00 0.104E+00   0.102E-13 0.239E-13 -.915E+00
   -.215E-13 -.219E-13 0.750E-06   -.341E-14 0.631E-14 0.425E-05   0.000E+00 0.127E-20 0.000E+00   0.163E-12 -.248E-12 -.264E-05
   0.170E-13 0.387E-12 0.937E-07   0.139E-14 0.780E-16 0.515E-06   0.106E-21 -.159E-21 0.000E+00   0.753E-14 0.278E-14 0.118E-06
   -.123E-13 0.371E-12 0.410E-06   -.109E-14 0.740E-15 -.355E-14   0.106E-21 0.111E-20 0.000E+00   0.185E-12 -.221E-12 -.167E-05

 POSITION                                       TOTAL-FORCE (eV/Angst)
      2.15007      0.00000      4.46027        -0.000000     -0.000000     -0.270056
      0.00000      2.15007      1.68559         0.000000     -0.000000      0.270056
      0.00000      0.00000      0.00000        -0.000000     -0.000000      0.000000
      2.15007      2.15007      3.07293        -0.000000      0.000000      0.000000
    total drift:                                0.000000      0.000000     -0.000001

  FREE ENERGIE OF THE ION-ELECTRON SYSTEM (eV)
  free  energy   TOTEN  =        -9.90474212 eV

  energy  without entropy=       -9.90103197  energy(sigma->0) =       -9.90288704

 writing wavefunctions

 total charge

# of ion       s       p       d       tot
    1        1.109   1.015   0.106   2.230
    2        1.140   0.998   0.108   2.246
    3        1.460   1.661   9.900  13.021
    4        1.275   1.578   0.023   2.877
tot          4.985   5.253  10.137  20.375