 vasp.5.4.4.18Apr17-6-g9f103f2a35 (build Dec 27 2023 19:01:38) complex

 executed on             LinuxIFC date 2024.08.25  14:42:09

 INCAR:
 POTCAR:    PAW_PBE Ga 08Apr2002
 POTCAR:    PAW_PBE Bi_d 06Sep2000
 POTCAR:    PAW_PBE As 22Sep2009

 POTCAR:    PAW_PBE Ga 08Apr2002
   VRHFIN =Ga: s2p1

   TITEL  = PAW_PBE Ga 08Apr2002
   POMASS =   69.723; ZVAL   =    3.000    mass and valenz
   ENMAX  =  134.678; ENMIN  =  101.009 eV

 POTCAR:    PAW_PBE Bi_d 06Sep2000
   VRHFIN =Bi:

   TITEL  = PAW_PBE Bi_d 06Sep2000
   POMASS =  208.980; ZVAL   =   15.000    mass and valenz
   ENMAX  =  242.839; ENMIN  =  182.129 eV

 POTCAR:    PAW_PBE As 22Sep2009
   VRHFIN =As: s2p3

   TITEL  = PAW_PBE As 22Sep2009
   POMASS =   74.922; ZVAL   =    5.000    mass and valenz
   ENMAX  =  208.702; ENMIN  =  156.526 eV

  PAW_PBE Ga 08Apr2002                  :
  PAW_PBE Bi_d 06Sep2000                :
  PAW_PBE As 22Sep2009                  :

 POSCAR: Ga Bi As
  positions in direct lattice
 exchange correlation table for  LEXCH =        8
   RHO(1)=    0.500       N(1)  =     2000
   RHO(2)=  100.500       N(2)  =     4000

 ion  position               nearest neighbor table
   1  0.500  0.000  0.726-   4 2.56   4 2.56   3 2.73   3 2.73
   2  0.000  0.500  0.274-   4 2.56   4 2.56   3 2.73   3 2.73
   3  0.000  0.000  0.000-   1 2.73   1 2.73   2 2.73   2 2.73
   4  0.500  0.500  0.500-   2 2.56   2 2.56   1 2.56   1 2.56

  LATTYP: Found a simple tetragonal cell.
 ALAT       =     4.3001408577
 C/A-ratio  =     1.4292232167

  Lattice vectors:

 A1 = (   4.3001408577,   0.0000000000,   0.0000000000)
 A2 = (   0.0000000000,   4.3001408577,   0.0000000000)
 A3 = (   0.0000000000,   0.0000000000,   6.1458611488)

Analysis of symmetry for initial positions (statically):
 Subroutine PRICEL returns:
 Original cell was already a primitive cell.

 Routine SETGRP: Setting up the symmetry group for a
 simple tetragonal supercell.

 Subroutine GETGRP returns: Found  8 space group operations
 (whereof  8 operations were pure point group operations)
 out of a pool of 16 trial point group operations.

The static configuration has the point symmetry D_2d.

Analysis of symmetry for dynamics (positions and initial velocities):
 Subroutine PRICEL returns:
 Original cell was already a primitive cell.

[...]

The dynamic configuration has the point symmetry D_2d.

 Subroutine INISYM returns: Found  8 space group operations
 (whereof  8 operations are pure point group operations),
 and found     1 'primitive' translations

 KPOINTS: K-Spacing Value to Generate K-Mesh: 0.04

Automatic generation of k-mesh.
Space group operators:
 irot       det(A)        alpha          n_x          n_y          n_z        tau_x        tau_y        tau_z
    1     1.000000     0.000001     1.000000     0.000000     0.000000     0.000000     0.000000     0.000000
    2    -1.000000    90.000000     0.000000     0.000000    -1.000000     0.000000     0.000000     0.000000
    3     1.000000   180.000000     0.000000     0.000000     1.000000     0.000000     0.000000     0.000000
    4    -1.000000    90.000000     0.000000     0.000000     1.000000     0.000000     0.000000     0.000000
    5    -1.000000   180.000000     0.000000     1.000000     0.000000     0.000000     0.000000     0.000000
    6     1.000000   180.000000     0.707107     0.707107     0.000000     0.000000     0.000000     0.000000
    7    -1.000000   180.000000     1.000000     0.000000     0.000000     0.000000     0.000000     0.000000
    8     1.000000   180.000000     0.707107    -0.707107     0.000000     0.000000     0.000000     0.000000

 Subroutine IBZKPT returns following result:

 Found      6 irreducible k-points:

 Following reciprocal coordinates:
            Coordinates               Weight
  0.000000  0.000000  0.000000      1.000000
  0.333333  0.000000  0.000000      4.000000
  0.333333  0.333333  0.000000      4.000000
  0.000000  0.000000  0.333333      2.000000
  0.333333  0.000000  0.333333      8.000000
  0.333333  0.333333  0.333333      8.000000

 Following cartesian coordinates:
            Coordinates               Weight
  0.000000  0.000000  0.000000      1.000000
  0.077517  0.000000  0.000000      4.000000
  0.077517  0.077517  0.000000      4.000000
  0.000000  0.000000  0.054237      2.000000
  0.077517  0.000000  0.054237      8.000000
  0.077517  0.077517  0.054237      8.000000

 Subroutine IBZKPT_HF returns following result:

 Found     27 k-points in 1st BZ
 the following     27 k-points will be used (e.g. in the exchange kernel)
 Following reciprocal coordinates:   # in IRBZ
  0.000000  0.000000  0.000000    0.03703704   1 t-inv F
  0.333333  0.000000  0.000000    0.03703704   2 t-inv F
  0.333333  0.333333  0.000000    0.03703704   3 t-inv F
  0.000000  0.000000  0.333333    0.03703704   4 t-inv F
  0.333333  0.000000  0.333333    0.03703704   5 t-inv F
  0.333333  0.333333  0.333333    0.03703704   6 t-inv F
  0.000000 -0.333333  0.000000    0.03703704   2 t-inv F
 -0.333333  0.000000  0.000000    0.03703704   2 t-inv F
  0.000000  0.333333  0.000000    0.03703704   2 t-inv F
  0.333333 -0.333333  0.000000    0.03703704   3 t-inv F
 -0.333333 -0.333333  0.000000    0.03703704   3 t-inv F
 -0.333333  0.333333  0.000000    0.03703704   3 t-inv F
  0.000000  0.000000 -0.333333    0.03703704   4 t-inv F
  0.000000 -0.333333 -0.333333    0.03703704   5 t-inv F
 -0.333333  0.000000  0.333333    0.03703704   5 t-inv F
  0.000000  0.333333 -0.333333    0.03703704   5 t-inv F
  0.333333 -0.333333 -0.333333    0.03703704   6 t-inv F
 -0.333333 -0.333333  0.333333    0.03703704   6 t-inv F
 -0.333333  0.333333 -0.333333    0.03703704   6 t-inv F
  0.333333 -0.333333  0.333333    0.03703704   6 t-inv F
  0.333333  0.333333 -0.333333    0.03703704   6 t-inv F
 -0.333333  0.333333  0.333333    0.03703704   6 t-inv F
 -0.333333 -0.333333 -0.333333    0.03703704   6 t-inv F
 -0.333333  0.000000 -0.333333    0.03703704   5 t-inv T
  0.000000  0.333333  0.333333    0.03703704   5 t-inv T
  0.333333  0.000000 -0.333333    0.03703704   5 t-inv T
  0.000000 -0.333333  0.333333    0.03703704   5 t-inv T

 SYSTEM =  CsAs
 POSCAR =  Ga Bi As

 Startparameter for this run:
   NWRITE =      2    write-flag & timer
   PREC   = accura    normal or accurate (medium, high low for compatibility)
   ISTART =      0    job   : 0-new  1-cont  2-samecut
   ICHARG =      2    charge: 1-file 2-atom 10-const
   ISPIN  =      1    spin polarized calculation?
   LNONCOLLINEAR =      F non collinear calculations
   LSORBIT =      F    spin-orbit coupling
   INIWAV =      1    electr: 0-lowe 1-rand  2-diag
   LASPH  =      F    aspherical Exc in radial PAW
   METAGGA=      F    non-selfconsistent MetaGGA calc.

 Electronic Relaxation 1
   ENCUT  =  500.0 eV  36.75 Ry    6.06 a.u.   7.84  7.84 11.21*2*pi/ulx,y,z
   ENINI  =  500.0     initial cutoff
   ENAUG  =  462.8 eV  augmentation charge cutoff
   NELM   =     60;   NELMIN=  2; NELMDL= -5     # of ELM steps
   EDIFF  = 0.1E-06   stopping-criterion for ELM
   LREAL  =      F    real-space projection
   NLSPLINE    = F    spline interpolate recip. space projectors
   LCOMPAT=      F    compatible to vasp.4.4
   GGA_COMPAT  = T    GGA compatible to vasp.4.4-vasp.4.6
   LMAXPAW     = -100 max onsite density
   LMAXMIX     =    2 max onsite mixed and CHGCAR
   VOSKOWN=      0    Vosko Wilk Nusair interpolation
   ROPT   =    0.00000   0.00000   0.00000
 Ionic relaxation
   EDIFFG = -.1E-01   stopping-criterion for IOM
   NSW    =      1    number of steps for IOM
   NBLOCK =      1;   KBLOCK =      1    inner block; outer block
   IBRION =      8    ionic relax: 0-MD 1-quasi-New 2-CG
   NFREE  =      0    steps in history (QN), initial steepest desc. (CG)
   ISIF   =      2    stress and relaxation
   IWAVPR =     11    prediction:  0-non 1-charg 2-wave 3-comb
   ISYM   =      2    0-nonsym 1-usesym 2-fastsym
   LCORR  =      T    Harris-Foulkes like correction to forces

   POTIM  = 0.5000    time-step for ionic-motion
   TEIN   =    0.0    initial temperature
   TEBEG  =    0.0;   TEEND  =   0.0 temperature during run
   SMASS  =  -3.00    Nose mass-parameter (am)
   estimated Nose-frequenzy (Omega)   =  0.10E-29 period in steps =****** mass=  -0.423E-27a.u.
   SCALEE = 1.0000    scale energy and forces
   NPACO  =    256;   APACO  = 16.0  distance and # of slots for P.C.
   PSTRESS=    0.0 pullay stress

  Mass of Ions in am
   POMASS =  69.72208.98 74.92
  Ionic Valenz
   ZVAL   =   3.00 15.00  5.00
  Atomic Wigner-Seitz radii
  virtual crystal weights
   VCA    =   1.00  1.00  1.00
   NELECT =      26.0000    total number of electrons
   NUPDOWN=      -1.0000    fix difference up-down

 DOS related values:
   EMIN   =  10.00;   EMAX   =-10.00  energy-range for DOS
   EFERMI =   0.00
   ISMEAR =     0;   SIGMA  =   0.05  broadening in eV -4-tet -1-fermi 0-gaus

 Electronic relaxation 2 (details)
   IALGO  =     38    algorithm
   LDIAG  =      T    sub-space diagonalisation (order eigenvalues)
   LSUBROT=      F    optimize rotation matrix (better conditioning)
   TURBO    =      0    0=normal 1=particle mesh
   IRESTART =      0    0=no restart 2=restart with 2 vectors
   NREBOOT  =      0    no. of reboots
   NMIN     =      0    reboot dimension
   EREF     =   0.00    reference energy to select bands
   IMIX   =      4    mixing-type and parameters
     AMIX     =   0.40;   BMIX     =  1.00
     AMIX_MAG =   1.60;   BMIX_MAG =  1.00
     AMIN     =   0.10
     WC   =   100.;   INIMIX=   1;  MIXPRE=   1;  MAXMIX= -45

 Intra band minimization:
   WEIMIN = 0.0010     energy-eigenvalue tresh-hold
   EBREAK =  0.78E-09  absolut break condition
   DEPER  =   0.30     relativ break condition

   TIME   =   0.40     timestep for ELM

  volume/ion in A,a.u.               =      28.41       191.73
  Fermi-wavevector in a.u.,A,eV,Ry     =   1.001267  1.892120 13.640326  1.002536
  Thomas-Fermi vector in A             =   2.133678

 Write flags
   LWAVE        =      F    write WAVECAR
   LDOWNSAMPLE  =      F    k-point downsampling of WAVECAR
   LCHARG       =      F    write CHGCAR
   LVTOT        =      F    write LOCPOT, total local potential
   LVHAR        =      F    write LOCPOT, Hartree potential only
   LELF         =      F    write electronic localiz. function (ELF)
   LORBIT       =      0    0 simple, 1 ext, 2 COOP (PROOUT), +10 PAW based schemes

 Dipole corrections
   LMONO  =      F    monopole corrections only (constant potential shift)
   LDIPOL =      F    correct potential (dipole corrections)
   IDIPOL =      0    1-x, 2-y, 3-z, 4-all directions
   EPSILON=  1.0000000 bulk dielectric constant

 Exchange correlation treatment:
   GGA     =    PE    GGA type
   VOSKOWN=      0    Vosko Wilk Nusair interpolation
   LHFCALC =     F    Hartree Fock is set to
   LHFONE  =     F    Hartree Fock one center treatment
   AEXX    =    0.0000 exact exchange contribution

 Linear response parameters
   LEPSILON=     F    determine dielectric tensor
   LRPA    =     F    only Hartree local field effects (RPA)
   LNABLA  =     F    use nabla operator in PAW spheres
[...]
 number of electron      26.0000008 magnetization
 augmentation part        4.0153823 magnetization

 Free energy of the ion-electron system (eV)
  alpha Z        PSCENC =        64.20128509
  Ewald energy   TEWEN  =     -1439.91766544
  -Hartree energ DENC   =      -754.96152994
  -exchange      EXHF   =         0.00000000
  -V(xc)+E(xc)   XCENC  =        -0.83833156
  PAW double counting   =      2432.55966347    -2337.44783145
  entropy T*S    EENTRO =        -0.00300642
  eigenvalues    EBANDS =      -225.14526626
  atomic energy  EATOM  =      2247.12322143
  Solvation  Ediel_sol  =         0.00000000
  free energy    TOTEN  =       -14.42946109 eV

  energy without entropy =      -14.42645467  energy(sigma->0) =      -14.42795788

 average (electrostatic) potential at core
  the test charge radii are     1.2767  1.0856  1.0621
  (the norm of the test charge is              1.0000)
       1 -14.6471       2 -14.6471       3-107.3448       4 -51.5272

 E-fermi :   3.2104     XC(G=0):  -8.7235     alpha+bet : -8.3023

 k-point     1 :       0.0000    0.0000    0.0000
  band No.  band energies     occupation
      1     -19.2110      2.00000
      2     -19.2110      2.00000
      3     -19.2097      2.00000
      4     -19.2002      2.00000
      5     -19.1598      2.00000
      6      -9.1237      2.00000
      7      -7.3742      2.00000
      8      -3.5065      2.00000
      9       0.5070      2.00000
     10       0.5070      2.00000
     11       1.8827      2.00000
     12       2.9700      2.00000
     13       3.2170      0.85130
     14       3.2170      0.85129
     15       4.1631      0.00000
     16       4.4150      0.00000
     17       6.2070      0.00000
     18       6.2070      0.00000
     19       6.3708      0.00000
     20       8.9444      0.00000
     21      11.4780      0.00000
     22      11.4780      0.00000
     23      12.0820      0.00000
     24      12.2120      0.00000
     25      12.4948      0.00000
     26      13.2404      0.00000
     27      13.2708      0.00000
     28      13.2708      0.00000
     29      13.9605      0.00000
     30      15.0666      0.00000
     31      15.0666      0.00000
     32      15.5651      0.00000

[...]

 soft charge-density along one line, spin component           1
         0         1         2         3         4         5         6         7         8         9
 total charge-density along one line

------------------------ aborting loop because EDIFF is reached ----------------------------------------

  FORCE on cell =-STRESS in cart. coord.  units (eV):
  Direction    XX          YY          ZZ          XY          YZ          ZX
  Alpha Z    64.20129    64.20129    64.20129
  Ewald    -439.74121  -439.74123  -560.43629     0.00000     0.00000    -0.00000
  Hartree   290.97195   290.97195   173.01776    -0.00000    -0.00000    -0.00000
  E(xc)    -113.18006  -113.18006  -113.02229    -0.00000     0.00000     0.00000
  Local    -321.52512  -321.52511   -80.87502    -0.00000     0.00000     0.00000
  n-local   152.67136   159.32240   154.96558     0.00796     0.21332    -1.08918
  augment   139.09274   139.09274   139.49852     0.00000     0.00000    -0.00000
  Kinetic   219.23437   231.24487   222.09005    -0.68582     1.16124    -1.07149
  Fock        0.00000     0.00000     0.00000     0.00000     0.00000     0.00000
  Total       1.05608     1.05608    -0.56041     0.00000     0.00000    -0.00000
  in kB      14.88877    14.88877    -7.90081     0.00000     0.00000    -0.00000

 VOLUME and BASIS-vectors are now :
  energy-cutoff  :      500.00
  volume of cell :      113.64
      direct lattice vectors                 reciprocal lattice vectors
     4.300140858  0.000000000  0.000000000     0.232550522  0.000000000  0.000000000
     0.000000000  4.300140858  0.000000000     0.000000000  0.232550522  0.000000000
     0.000000000  0.000000000  6.145861149     0.000000000  0.000000000  0.162711128

  length of vectors
     4.300140858  4.300140858  6.145861149     0.232550522  0.232550522  0.162711128

 FORCES acting on ions
    electron-ion (+dipol)            ewald-force                    non-local-force                 convergence-correction
   0.488E-14 -.182E-13 0.477E+02   0.261E-14 -.178E-15 -.473E+02   -.867E-18 0.000E+00 -.377E+00   0.951E-14 -.136E-14 0.267E-05
   -.379E-14 0.991E-14 -.477E+02   -.168E-14 -.547E-14 0.473E+02   0.867E-18 0.000E+00 0.377E+00   0.874E-14 0.793E-16 -.267E-05
   -.293E-13 0.178E-13 0.718E-06   -.341E-14 0.631E-14 0.425E-05   -.139E-16 0.000E+00 0.000E+00   -.337E-13 -.722E-14 -.131E-07
   0.168E-13 0.356E-12 0.910E-07   0.139E-14 0.780E-16 0.515E-06   0.347E-17 0.000E+00 0.000E+00   -.482E-14 -.763E-15 0.371E-08
   -.114E-13 0.366E-12 0.344E-06   -.109E-14 0.740E-15 -.355E-14   -.104E-16 0.000E+00 0.000E+00   -.202E-13 -.927E-14 -.887E-08

 POSITION                                       TOTAL-FORCE (eV/Angst)
      2.15007      0.00000      4.46027         0.000000     -0.000000     -0.026878
      0.00000      2.15007      1.68559        -0.000000     -0.000000      0.026878
      0.00000      0.00000      0.00000        -0.000000     -0.000000      0.000000
      2.15007      2.15007      3.07293        -0.000000      0.000000      0.000000
    total drift:                               -0.000000      0.000000      0.000000

  FREE ENERGIE OF THE ION-ELECTRON SYSTEM (eV)
  free  energy   TOTEN  =       -14.42946109 eV

  energy  without entropy=      -14.42645467  energy(sigma->0) =      -14.42795788

 Found     7 degrees of freedom:

     directions for atom     1:  z
     directions for atom     3:  z
     directions for atom     4:  z
 Linear response reoptimize wavefunctions
 Linear response:
   Degrees of freedom DOF   =            7
 Linear response progress:
  Degree of freedom:   1/  7
  LATTYP: Found a simple tetragonal cell.
 ALAT       =     4.3001408577
 C/A-ratio  =     1.4292232167

[...]

The dynamic configuration has the point symmetry C_1h.

[...]

----------------------------------------- Iteration    4(   1)  ---------------------------------------

 Free energy of the ion-electron system (eV)
  -Hartree energ DENC   =        -0.00463823
  -V(xc)+E(xc)   XCENC  =         0.00008156
  PAW double counting   =         0.00000000        0.00000000
  entropy T*S    EENTRO =         0.00000000
  eigenvalues    EBANDS =        -0.00752293
  free energy    TOTEN  =        -0.01207960 eV

  energy without entropy =       -0.01207960

[...]

 INTERNAL STRAIN TENSOR  FOR ION    1  DIRECTION 1   (eV/Angst):
    -0.00191  0.00000  7.44261
     0.00000  0.00473  0.00000
     7.21127  0.00000 -0.00292

 POSITION                   FORCE-CONSTANT FOR ION    1 DIRECTION 1 (eV/Angst/Angst)
      2.15007      0.00000      4.46027        -5.786255      0.000000     -0.000115
      0.00000      2.15007      1.68559         0.021653      0.000000      0.000032
      0.00000      0.00000      0.00000         5.988843      0.000000      0.000038
      2.15007      2.15007      3.07293        -0.224242      0.000000      0.000044
    total drift:                                0.000000      0.000000     -0.000000

 Linear response progress:
  Degree of freedom:   2/  7
  LATTYP: Found a simple tetragonal cell.
 ALAT       =     4.3001408577
 C/A-ratio  =     1.4292232167

[...]

The dynamic configuration has the point symmetry C_2v.

[...]

The dynamic configuration has the point symmetry C_1h.

[...]

 Linear response progress:
  Degree of freedom:   7/  7
  LATTYP: Found a simple tetragonal cell.
 ALAT       =     4.3001408577
 C/A-ratio  =     1.4292232167

[...]

The dynamic configuration has the point symmetry C_2v.

[...]

----------------------------------------- Iteration   15(  15)  ---------------------------------------

 Broyden mixing:
  rms(total) = 0.55224E-06    rms(broyden)= 0.55192E-06
  rms(prec ) = 0.76097E-06
  weight for this iteration     100.00

 eigenvalues of (default mixing * dielectric matrix)
  average eigenvalue GAMMA=   1.7822
  3.5082  3.0378  2.5366  2.4273  2.4273  1.9049  1.6368  1.2488  0.9949  0.9949
  0.9401  0.8233  0.6883

 Free energy of the ion-electron system (eV)
  -Hartree energ DENC   =        -0.02733092
  -V(xc)+E(xc)   XCENC  =         0.00032945
  PAW double counting   =         0.01603914       -0.01604889
  entropy T*S    EENTRO =         0.00000000
  eigenvalues    EBANDS =        -0.02411599
  free energy    TOTEN  =        -0.05112721 eV

  energy without entropy =       -0.05112722

[...]

 k-point   8 :       0.0000    0.3333    0.3333
  band No.  band energies     occupation
      1       0.1239      0.00000
      2      -0.1247      0.00000
      3      -0.1263      0.00000
      4       0.1264      0.00000
      5       0.0001      0.00000
      6       0.1385      0.00000
      7       0.1311      0.00000
      8      -0.8005      0.00000
      9      -0.7716      0.00000
     10      -0.2968      0.00000
     11       1.7998      0.00000
     12      -0.6205      0.00000
     13      -0.1638      0.00000
     14       0.8181     -2.09877
     15       0.8586      0.00000
     16       1.0901      0.00000
     17      -0.8839      0.00000
     18       0.9264      0.00000
     19      -1.1978      0.00000
     20      -1.2341      0.00000
     21       0.5510      0.00000
     22       0.1174      0.00000
     23      -0.4874      0.00000
     24       0.1684      0.00000
     25       0.3412      0.00000
     26       0.3430      0.00000
     27       0.4101      0.00000
     28      -0.6262      0.00000
     29       0.3309      0.00000
     30      -0.4204      0.00000
     31      -1.4102      0.00000
     32      -0.2551      0.00000

------------------------ aborting loop because EDIFF is reached ----------------------------------------

 INTERNAL STRAIN TENSOR  FOR ION    4  DIRECTION 3   (eV/Angst):
    -8.54396  0.00000  0.00000
     0.00000  8.54219  0.00000
     0.00000  0.00000  0.00074

 POSITION                   FORCE-CONSTANT FOR ION    4 DIRECTION 3 (eV/Angst/Angst)
      2.15007      0.00000      4.46027         0.000000      0.000000      1.373523
      0.00000      2.15007      1.68559         0.000000      0.000000      1.372991
      0.00000      0.00000      0.00000         0.000000      0.000000      3.369515
      2.15007      2.15007      3.07293         0.000000      0.000000     -6.116028
    total drift:                                0.000000      0.000000     -0.000000

  LATTYP: Found a simple tetragonal cell.
 ALAT       =     4.3001408577
 C/A-ratio  =     1.4292232167

  Lattice vectors:

 A1 = (   4.3001408577,   0.0000000000,   0.0000000000)
 A2 = (   0.0000000000,   4.3001408577,   0.0000000000)
 A3 = (   0.0000000000,   0.0000000000,   6.1458611488)

Analysis of symmetry for initial positions (statically):
 Subroutine PRICEL returns:
 Original cell was already a primitive cell.

[...]

The static configuration has the point symmetry D_2d.

Analysis of symmetry for dynamics (positions and initial velocities):
 Subroutine PRICEL returns:
 Original cell was already a primitive cell.

 Routine SETGRP: Setting up the symmetry group for a
 simple tetragonal supercell.

 Subroutine GETGRP returns: Found  8 space group operations
 (whereof  8 operations were pure point group operations)
 out of a pool of 16 trial point group operations.

The dynamic configuration has the point symmetry D_2d.

 Subroutine INISYM returns: Found  8 space group operations
 (whereof  8 operations are pure point group operations),
 and found     1 'primitive' translations

 INTERNAL STRAIN TENSOR FOR ION    1 for displacements in x,y,z  (eV/Angst):
          X           Y           Z          XY          YZ          ZX
  x     0.00000     0.00000     0.00000     0.00000     0.00000     7.44261
  y     0.00000     0.00000     0.00000     0.00000    -5.43750     0.00000
  z    10.35391    -9.64097    -0.78225     0.00000     0.00000     0.00000

[...]

 INTERNAL STRAIN TENSOR FOR ION    4 for displacements in x,y,z  (eV/Angst):
          X           Y           Z          XY          YZ          ZX
  x     0.00000     0.00000     0.00000     0.00000     0.00000    -5.19629
  y     0.00000     0.00000     0.00000     0.00000     4.62187     0.00000
  z    -8.54307     8.54307     0.00000     0.00000     0.00000     0.00000

 SECOND DERIVATIVES (NOT SYMMETRIZED)
               1X          1Y          1Z          2X          2Y          2Z          3X          3Y          3Z          4X          4Y          4Z
  1X    -5.786255    0.000000    0.000000    0.021653    0.000000    0.000000    5.988843    0.000000    0.000000   -0.224242    0.000000    0.000000
  1Y     0.000000   -5.225754    0.000000    0.000000    0.024389    0.000000    0.000000   -0.170101    0.000000    0.000000    5.371466    0.000000
  1Z     0.000000    0.000000   -5.504457    0.000000    0.000000    3.426572    0.000000    0.000000    0.705815    0.000000    0.000000    1.372069
  2X     0.024389    0.000000    0.000000   -5.225754    0.000000    0.000000   -0.170101    0.000000    0.000000    5.371466    0.000000    0.000000
  2Y     0.000000    0.021653    0.000000    0.000000   -5.786255    0.000000    0.000000    5.988843    0.000000    0.000000   -0.224242    0.000000
  2Z     0.000000    0.000000    3.426572    0.000000    0.000000   -5.504457    0.000000    0.000000    0.705815    0.000000    0.000000    1.372069
  3X     5.999163    0.000000    0.000000   -0.141412    0.000000    0.000000   -6.913268    0.000000    0.000000    1.055516    0.000000    0.000000
  3Y     0.000000   -0.141412    0.000000    0.000000    5.999163    0.000000    0.000000   -6.913268    0.000000    0.000000    1.055516    0.000000
  3Z     0.000000    0.000000    0.699735    0.000000    0.000000    0.699735    0.000000    0.000000   -4.750188    0.000000    0.000000    3.350717
  4X    -0.223322    0.000000    0.000000    5.368997    0.000000    0.000000    1.047448    0.000000    0.000000   -6.193123    0.000000    0.000000
  4Y     0.000000    5.368997    0.000000    0.000000   -0.223322    0.000000    0.000000    1.047448    0.000000    0.000000   -6.193123    0.000000
  4Z     0.000000    0.000000    1.373257    0.000000    0.000000    1.373257    0.000000    0.000000    3.369515    0.000000    0.000000   -6.116028

 Eigenvectors and eigenvalues of the dynamical matrix

   1 f  =    6.138406 THz    38.568744 2PiTHz  204.755188 cm-1    25.386417 meV
             X         Y         Z           dx          dy          dz
      2.150070  0.000000  4.460273     0.103173   -0.096785    0.000000
      0.000000  2.150070  1.685588    -0.671068    0.014880   -0.000000
      0.000000  0.000000  0.000000    -0.098961   -0.014273    0.000000
      2.150070  2.150070  3.072931     0.713339    0.102881   -0.000000

[...]

   9 f  =    1.266642 THz     7.958546 2PiTHz   42.250624 cm-1     5.238412 meV
             X         Y         Z           dx          dy          dz
      2.150070  0.000000  4.460273    -0.112334    0.561043   -0.000000
      0.000000  2.150070  1.685588     0.197995   -0.318311    0.000000
      0.000000  0.000000  0.000000    -0.162988   -0.461846    0.000000
      2.150070  2.150070  3.072931     0.179898    0.509763    0.000000

  10 f/i=    0.005389 THz     0.033861 2PiTHz    0.179764 cm-1     0.022288 meV
             X         Y         Z           dx          dy          dz
      2.150070  0.000000  4.460273    -0.000000   -0.000000   -0.405155
      0.000000  2.150070  1.685588    -0.000000   -0.000000   -0.405155
      0.000000  0.000000  0.000000    -0.000000   -0.000000   -0.703759
      2.150070  2.150070  3.072931    -0.000000   -0.000000   -0.420027

[...]

  12 f/i=    0.015962 THz     0.100289 2PiTHz    0.532420 cm-1     0.066012 meV
             X         Y         Z           dx          dy          dz
      2.150070  0.000000  4.460273    -0.131378   -0.390632    0.000000
      0.000000  2.150070  1.685588    -0.134957   -0.380272    0.000000
      0.000000  0.000000  0.000000    -0.227371   -0.658123    0.000000
      2.150070  2.150070  3.072931    -0.139501   -0.403785    0.000000

 ELASTIC MODULI IONIC CONTR (kBar)
 Direction    XX          YY          ZZ          XY          YZ          ZX
 XX       -1430.2177   1429.4153      0.8804      0.0000      0.0000      0.0000
 YY        1429.4153  -1430.2177      0.8804      0.0000     -0.0000     -0.0000
 ZZ           0.8804      0.8804     -1.9319      0.0000     -0.0000     -0.0000
 XY           0.0000      0.0000      0.0000      0.0000      0.0000      0.0000
 YZ           0.0000     -0.0000     -0.0000      0.0000   -195.7446      0.0000
 ZX           0.0000     -0.0000     -0.0000      0.0000      0.0000   -245.7489