 vasp.5.4.4.18Apr17-6-g9f103f2a35 (build Dec 22 2021 20:15:33) complex

 executed on             LinuxIFC date 2019.05.17  01:27:19

 INCAR:
 POTCAR:    PAW_PBE Ga 08Apr2002
 POTCAR:    PAW_PBE Bi_d 06Sep2000
 POTCAR:    PAW_PBE As 22Sep2009
 POTCAR:    PAW_PBE Ga 08Apr2002
   VRHFIN =Ga: s2p1

   TITEL  = PAW_PBE Ga 08Apr2002
   POMASS =   69.723; ZVAL   =    3.000    mass and valenz
   ENMAX  =  134.678; ENMIN  =  101.009 eV

 POTCAR:    PAW_PBE Bi_d 06Sep2000
   VRHFIN =Bi:

   TITEL  = PAW_PBE Bi_d 06Sep2000
   POMASS =  208.980; ZVAL   =   15.000    mass and valenz
   ENMAX  =  242.839; ENMIN  =  182.129 eV

 POTCAR:    PAW_PBE As 22Sep2009
   VRHFIN =As: s2p3

   TITEL  = PAW_PBE As 22Sep2009
   POMASS =   74.922; ZVAL   =    5.000    mass and valenz
   ENMAX  =  208.702; ENMIN  =  156.526 eV

  PAW_PBE Ga 08Apr2002                  :
  PAW_PBE Bi_d 06Sep2000                :
  PAW_PBE As 22Sep2009                  :

 POSCAR: Ga2 Bi1 As1
  positions in direct lattice
 exchange correlation table for  LEXCH =        8
   RHO(1)=    0.500       N(1)  =     2000
   RHO(2)=  100.500       N(2)  =     4000

 ion  position               nearest neighbor table
   1  0.500  0.000  0.726-   4 2.56   4 2.56   3 2.73   3 2.73
   2  0.000  0.500  0.274-   4 2.56   4 2.56   3 2.73   3 2.73
   3  0.000  0.000  0.000-   1 2.73   1 2.73   2 2.73   2 2.73
   4  0.500  0.500  0.500-   2 2.56   2 2.56   1 2.56   1 2.56

  LATTYP: Found a simple tetragonal cell.
 ALAT       =     4.3001408577
 C/A-ratio  =     1.4292232167

  Lattice vectors:

 A1 = (   4.3001408577,   0.0000000000,   0.0000000000)
 A2 = (   0.0000000000,   4.3001408577,   0.0000000000)
 A3 = (   0.0000000000,   0.0000000000,   6.1458611488)

Analysis of symmetry for initial positions (statically):
 Subroutine PRICEL returns:
 Original cell was already a primitive cell.

 Routine SETGRP: Setting up the symmetry group for a
 simple tetragonal supercell.

 Subroutine GETGRP returns: Found  8 space group operations
 (whereof  8 operations were pure point group operations)
 out of a pool of 16 trial point group operations.

The static configuration has the point symmetry D_2d.

Analysis of symmetry for dynamics (positions and initial velocities):
 Subroutine PRICEL returns:
 Original cell was already a primitive cell.

 Routine SETGRP: Setting up the symmetry group for a
 simple tetragonal supercell.

 Subroutine GETGRP returns: Found  8 space group operations
 (whereof  8 operations were pure point group operations)
 out of a pool of 16 trial point group operations.

The dynamic configuration has the point symmetry D_2d.

 Subroutine INISYM returns: Found  8 space group operations
 (whereof  8 operations are pure point group operations),
 and found     1 'primitive' translations

 KPOINTS: MP

Automatic generation of k-mesh.
Space group operators:
 irot       det(A)        alpha          n_x          n_y          n_z        tau_x        tau_y        tau_z
    1     1.000000     0.000001     1.000000     0.000000     0.000000     0.000000     0.000000     0.000000
    2    -1.000000    90.000000     0.000000     0.000000    -1.000000     0.000000     0.000000     0.000000
    3     1.000000   180.000000     0.000000     0.000000     1.000000     0.000000     0.000000     0.000000
    4    -1.000000    90.000000     0.000000     0.000000     1.000000     0.000000     0.000000     0.000000
    5    -1.000000   180.000000     0.000000     1.000000     0.000000     0.000000     0.000000     0.000000
    6     1.000000   180.000000     0.707107     0.707107     0.000000     0.000000     0.000000     0.000000
    7    -1.000000   180.000000     1.000000     0.000000     0.000000     0.000000     0.000000     0.000000
    8     1.000000   180.000000     0.707107    -0.707107     0.000000     0.000000     0.000000     0.000000

 Subroutine IBZKPT returns following result:

 Found     30 irreducible k-points:

 Following reciprocal coordinates:
            Coordinates               Weight
  0.000000  0.000000  0.000000      1.000000
  0.142857  0.000000  0.000000      4.000000
  0.285714  0.000000  0.000000      4.000000
  0.428571  0.000000  0.000000      4.000000
  0.142857  0.142857  0.000000      4.000000
  0.285714  0.142857  0.000000      8.000000
  0.428571  0.142857  0.000000      8.000000
  0.285714  0.285714  0.000000      4.000000
  0.428571  0.285714  0.000000      8.000000
  0.428571  0.428571  0.000000      4.000000
  0.000000  0.000000  0.200000      2.000000
  0.142857  0.000000  0.200000      8.000000
  0.285714  0.000000  0.200000      8.000000
  0.428571  0.000000  0.200000      8.000000
  0.142857  0.142857  0.200000      8.000000
  0.285714  0.142857  0.200000     16.000000
  0.428571  0.142857  0.200000     16.000000
  0.285714  0.285714  0.200000      8.000000
  0.428571  0.285714  0.200000     16.000000
  0.428571  0.428571  0.200000      8.000000
  0.000000  0.000000  0.400000      2.000000
  0.142857  0.000000  0.400000      8.000000
  0.285714  0.000000  0.400000      8.000000
  0.428571  0.000000  0.400000      8.000000
  0.142857  0.142857  0.400000      8.000000
  0.285714  0.142857  0.400000     16.000000
  0.428571  0.142857  0.400000     16.000000
  0.285714  0.285714  0.400000      8.000000
  0.428571  0.285714  0.400000     16.000000
  0.428571  0.428571  0.400000      8.000000

 Following cartesian coordinates:
            Coordinates               Weight
  0.000000  0.000000  0.000000      1.000000
  0.033222  0.000000  0.000000      4.000000
  0.066443  0.000000  0.000000      4.000000
  0.099665  0.000000  0.000000      4.000000
  0.033222  0.033222  0.000000      4.000000
  0.066443  0.033222  0.000000      8.000000
  0.099665  0.033222  0.000000      8.000000
  0.066443  0.066443  0.000000      4.000000
  0.099665  0.066443  0.000000      8.000000
  0.099665  0.099665  0.000000      4.000000
  0.000000  0.000000  0.032542      2.000000
  0.033222  0.000000  0.032542      8.000000
  0.066443  0.000000  0.032542      8.000000
  0.099665  0.000000  0.032542      8.000000
  0.033222  0.033222  0.032542      8.000000
  0.066443  0.033222  0.032542     16.000000
  0.099665  0.033222  0.032542     16.000000
  0.066443  0.066443  0.032542      8.000000
  0.099665  0.066443  0.032542     16.000000
  0.099665  0.099665  0.032542      8.000000
  0.000000  0.000000  0.065084      2.000000
  0.033222  0.000000  0.065084      8.000000
  0.066443  0.000000  0.065084      8.000000
  0.099665  0.000000  0.065084      8.000000
  0.033222  0.033222  0.065084      8.000000
  0.066443  0.033222  0.065084     16.000000
  0.099665  0.033222  0.065084     16.000000
  0.066443  0.066443  0.065084      8.000000
  0.099665  0.066443  0.065084     16.000000
  0.099665  0.099665  0.065084      8.000000

 SYSTEM =  Ga2BiAs
 POSCAR =  Ga2 Bi1 As1

 Startparameter for this run:
   NWRITE =      2    write-flag & timer
   PREC   = accura    normal or accurate (medium, high low for compatibility)
   ISTART =      0    job   : 0-new  1-cont  2-samecut
   ICHARG =      2    charge: 1-file 2-atom 10-const
   ISPIN  =      1    spin polarized calculation?
   LNONCOLLINEAR =      F non collinear calculations
   LSORBIT =      F    spin-orbit coupling
   INIWAV =      1    electr: 0-lowe 1-rand  2-diag
   LASPH  =      F    aspherical Exc in radial PAW
   METAGGA=      F    non-selfconsistent MetaGGA calc.

 Electronic Relaxation 1
   ENCUT  =  500.0 eV  36.75 Ry    6.06 a.u.   7.84  7.84 11.21*2*pi/ulx,y,z
   ENINI  =  500.0     initial cutoff
   ENAUG  =  462.8 eV  augmentation charge cutoff
   NELM   =     60;   NELMIN=  2; NELMDL=  0     # of ELM steps
   EDIFF  = 0.1E-05   stopping-criterion for ELM
   LREAL  =      F    real-space projection
   NLSPLINE    = F    spline interpolate recip. space projectors
   LCOMPAT=      F    compatible to vasp.4.4
   GGA_COMPAT  = T    GGA compatible to vasp.4.4-vasp.4.6
   LMAXPAW     = -100 max onsite density
   LMAXMIX     =    2 max onsite mixed and CHGCAR
   VOSKOWN=      0    Vosko Wilk Nusair interpolation
   ROPT   =    0.00000   0.00000   0.00000
 Ionic relaxation
   EDIFFG = -.1E-01   stopping-criterion for IOM
   NSW    =      0    number of steps for IOM
   NBLOCK =      1;   KBLOCK =      1    inner block; outer block
   IBRION =     -1    ionic relax: 0-MD 1-quasi-New 2-CG
   NFREE  =      0    steps in history (QN), initial steepest desc. (CG)
   ISIF   =      2    stress and relaxation
   IWAVPR =     10    prediction:  0-non 1-charg 2-wave 3-comb
   ISYM   =      2    0-nonsym 1-usesym 2-fastsym
   LCORR  =      T    Harris-Foulkes like correction to forces

   POTIM  = 0.5000    time-step for ionic-motion
   TEIN   =    0.0    initial temperature
   TEBEG  =    0.0;   TEEND  =   0.0 temperature during run
   SMASS  =  -3.00    Nose mass-parameter (am)
   estimated Nose-frequenzy (Omega)   =  0.10E-29 period in steps =****** mass=  -0.423E-27a.u.
   SCALEE = 1.0000    scale energy and forces
   NPACO  =    256;   APACO  = 16.0  distance and # of slots for P.C.
   PSTRESS=    0.0 pullay stress

  Mass of Ions in am
   POMASS =  69.72208.98 74.92
  Ionic Valenz
   ZVAL   =   3.00 15.00  5.00
  Atomic Wigner-Seitz radii
  virtual crystal weights
   VCA    =   1.00  1.00  1.00
   NELECT =      26.0000    total number of electrons
   NUPDOWN=      -1.0000    fix difference up-down

 DOS related values:
   EMIN   =  10.00;   EMAX   =-10.00  energy-range for DOS
   EFERMI =   0.00
   ISMEAR =     1;   SIGMA  =   0.20  broadening in eV -4-tet -1-fermi 0-gaus

 Electronic relaxation 2 (details)
   IALGO  =     38    algorithm
   LDIAG  =      T    sub-space diagonalisation (order eigenvalues)
   LSUBROT=      F    optimize rotation matrix (better conditioning)
   TURBO    =      0    0=normal 1=particle mesh
   IRESTART =      0    0=no restart 2=restart with 2 vectors
   NREBOOT  =      0    no. of reboots
   NMIN     =      0    reboot dimension
   EREF     =   0.00    reference energy to select bands
   IMIX   =      4    mixing-type and parameters
     AMIX     =   0.40;   BMIX     =  1.00
     AMIX_MAG =   1.60;   BMIX_MAG =  1.00
     AMIN     =   0.10
     WC   =   100.;   INIMIX=   1;  MIXPRE=   1;  MAXMIX= -45

 Intra band minimization:
   WEIMIN = 0.0000     energy-eigenvalue tresh-hold
   EBREAK =  0.12E-07  absolut break condition
   DEPER  =   0.30     relativ break condition

   TIME   =   0.40     timestep for ELM

  volume/ion in A,a.u.               =      28.41       191.73
  Fermi-wavevector in a.u.,A,eV,Ry     =   1.001267  1.892120 13.640326  1.002536
  Thomas-Fermi vector in A             =   2.133678

 Write flags
   LWAVE        =      T    write WAVECAR
   LDOWNSAMPLE  =      F    k-point downsampling of WAVECAR
   LCHARG       =      T    write CHGCAR
   LVTOT        =      F    write LOCPOT, total local potential
   LVHAR        =      F    write LOCPOT, Hartree potential only
   LELF         =      F    write electronic localiz. function (ELF)
   LORBIT       =      0    0 simple, 1 ext, 2 COOP (PROOUT), +10 PAW based schemes

 Dipole corrections
   LMONO  =      F    monopole corrections only (constant potential shift)
[...]
   VOSKOWN=      0    Vosko Wilk Nusair interpolation
   LHFCALC =     F    Hartree Fock is set to
   LHFONE  =     F    Hartree Fock one center treatment
   AEXX    =    0.0000 exact exchange contribution

 Linear response parameters
   LEPSILON=     F    determine dielectric tensor
   LRPA    =     F    only Hartree local field effects (RPA)
   LNABLA  =     F    use nabla operator in PAW spheres
   LVEL    =     F    velocity operator in full k-point grid
   LINTERFAST=   F  fast interpolation
   KINTER  =     0    interpolate to denser k-point grid
   CSHIFT  =0.1000    complex shift for real part using Kramers Kronig
   OMEGAMAX=  -1.0    maximum frequency
   DEG_THRESHOLD= 0.2000000E-02 threshold for treating states as degnerate
   RTIME   =   -0.100 relaxation time in fs
  (WPLASMAI=    0.000 imaginary part of plasma frequency in eV, 0.658/RTIME)
   DFIELD  = 0.0000000 0.0000000 0.0000000 field for delta impulse in time

 Orbital magnetization related:
   ORBITALMAG=     F  switch on orbital magnetization
   LCHIMAG   =     F  perturbation theory with respect to B field
   DQ        =  0.001000  dq finite difference perturbation B field
   LLRAUG    =     F  two centre corrections for induced B field

 Static calculation
 charge density and potential will be updated during run
 non-spin polarized calculation
 Variant of blocked Davidson
 Davidson routine will perform the subspace rotation
 perform sub-space diagonalisation
    after iterative eigenvector-optimisation
 modified Broyden-mixing scheme, WC =      100.0
 initial mixing is a Kerker type mixing with AMIX =  0.4000 and BMIX =      1.0000
 Hartree-type preconditioning will be used
 using additional bands            7
 reciprocal scheme for non local part
 use partial core corrections
 calculate Harris-corrections to forces
   (improved forces if not selfconsistent)
 use gradient corrections
 use of overlap-Matrix (Vanderbilt PP)
 Methfessel and Paxton  Order N= 1 SIGMA  =   0.20

  energy-cutoff  :      500.00
  volume of cell :      113.64
      direct lattice vectors                 reciprocal lattice vectors
     4.300140858  0.000000000  0.000000000     0.232550522  0.000000000  0.000000000
     0.000000000  4.300140858  0.000000000     0.000000000  0.232550522  0.000000000
     0.000000000  0.000000000  6.145861149     0.000000000  0.000000000  0.162711128

  length of vectors
     4.300140858  4.300140858  6.145861149     0.232550522  0.232550522  0.162711128

 k-points in units of 2pi/SCALE and weight: MP
   0.00000000  0.00000000  0.00000000       0.004
   0.03322150  0.00000000  0.00000000       0.016
   0.06644301  0.00000000  0.00000000       0.016
   0.09966451  0.00000000  0.00000000       0.016
   0.03322150  0.03322150  0.00000000       0.016
   0.06644301  0.03322150  0.00000000       0.033
   0.09966451  0.03322150  0.00000000       0.033
   0.06644301  0.06644301  0.00000000       0.016
   0.09966451  0.06644301  0.00000000       0.033
   0.09966451  0.09966451  0.00000000       0.016
   0.00000000  0.00000000  0.03254223       0.008
   0.03322150  0.00000000  0.03254223       0.033
   0.06644301  0.00000000  0.03254223       0.033
   0.09966451  0.00000000  0.03254223       0.033
   0.03322150  0.03322150  0.03254223       0.033
   0.06644301  0.03322150  0.03254223       0.065
   0.09966451  0.03322150  0.03254223       0.065
   0.06644301  0.06644301  0.03254223       0.033
   0.09966451  0.06644301  0.03254223       0.065
   0.09966451  0.09966451  0.03254223       0.033
   0.00000000  0.00000000  0.06508445       0.008
   0.03322150  0.00000000  0.06508445       0.033
   0.06644301  0.00000000  0.06508445       0.033
   0.09966451  0.00000000  0.06508445       0.033
   0.03322150  0.03322150  0.06508445       0.033
   0.06644301  0.03322150  0.06508445       0.065
   0.09966451  0.03322150  0.06508445       0.065
   0.06644301  0.06644301  0.06508445       0.033
   0.09966451  0.06644301  0.06508445       0.065
   0.09966451  0.09966451  0.06508445       0.033

 k-points in reciprocal lattice and weights: MP
   0.00000000  0.00000000  0.00000000       0.004
   0.14285714  0.00000000  0.00000000       0.016
   0.28571429  0.00000000  0.00000000       0.016
   0.42857143  0.00000000  0.00000000       0.016
   0.14285714  0.14285714  0.00000000       0.016
   0.28571429  0.14285714  0.00000000       0.033
   0.42857143  0.14285714  0.00000000       0.033
   0.28571429  0.28571429  0.00000000       0.016
   0.42857143  0.28571429  0.00000000       0.033
   0.42857143  0.42857143  0.00000000       0.016
   0.00000000  0.00000000  0.20000000       0.008
   0.14285714  0.00000000  0.20000000       0.033
   0.28571429  0.00000000  0.20000000       0.033
   0.42857143  0.00000000  0.20000000       0.033
   0.14285714  0.14285714  0.20000000       0.033
   0.28571429  0.14285714  0.20000000       0.065
   0.42857143  0.14285714  0.20000000       0.065
   0.28571429  0.28571429  0.20000000       0.033
   0.42857143  0.28571429  0.20000000       0.065
   0.42857143  0.42857143  0.20000000       0.033
   0.00000000  0.00000000  0.40000000       0.008
   0.14285714  0.00000000  0.40000000       0.033
   0.28571429  0.00000000  0.40000000       0.033
   0.42857143  0.00000000  0.40000000       0.033
   0.14285714  0.14285714  0.40000000       0.033
   0.28571429  0.14285714  0.40000000       0.065
   0.42857143  0.14285714  0.40000000       0.065
   0.28571429  0.28571429  0.40000000       0.033
   0.42857143  0.28571429  0.40000000       0.065
   0.42857143  0.42857143  0.40000000       0.033

 position of ions in fractional coordinates (direct lattice)
   0.50000000  0.00000000  0.72573602
   0.00000000  0.50000000  0.27426400
   0.00000000  0.00000000  0.00000000
   0.50000000  0.50000000  0.50000000

 position of ions in cartesian coordinates  (Angst):
   2.15007043  0.00000000  4.46027279
   0.00000000  2.15007043  1.68558848
   0.00000000  0.00000000  0.00000000
   2.15007043  2.15007043  3.07293057

 k-point  1 :   0.0000 0.0000 0.0000  plane waves:    2879
 k-point  2 :   0.1429 0.0000 0.0000  plane waves:    2883
 k-point  3 :   0.2857 0.0000 0.0000  plane waves:    2880
 k-point  4 :   0.4286 0.0000 0.0000  plane waves:    2890
 k-point  5 :   0.1429 0.1429 0.0000  plane waves:    2883
 k-point  6 :   0.2857 0.1429 0.0000  plane waves:    2880
 k-point  7 :   0.4286 0.1429 0.0000  plane waves:    2891
 k-point  8 :   0.2857 0.2857 0.0000  plane waves:    2889
 k-point  9 :   0.4286 0.2857 0.0000  plane waves:    2888
 k-point 10 :   0.4286 0.4286 0.0000  plane waves:    2889
 k-point 11 :   0.0000 0.0000 0.2000  plane waves:    2875
 k-point 12 :   0.1429 0.0000 0.2000  plane waves:    2877
 k-point 13 :   0.2857 0.0000 0.2000  plane waves:    2885
 k-point 14 :   0.4286 0.0000 0.2000  plane waves:    2887
 k-point 15 :   0.1429 0.1429 0.2000  plane waves:    2873
 k-point 16 :   0.2857 0.1429 0.2000  plane waves:    2876
 k-point 17 :   0.4286 0.1429 0.2000  plane waves:    2887
 k-point 18 :   0.2857 0.2857 0.2000  plane waves:    2885
 k-point 19 :   0.4286 0.2857 0.2000  plane waves:    2888
 k-point 20 :   0.4286 0.4286 0.2000  plane waves:    2887
 k-point 21 :   0.0000 0.0000 0.4000  plane waves:    2894
 k-point 22 :   0.1429 0.0000 0.4000  plane waves:    2879
 k-point 23 :   0.2857 0.0000 0.4000  plane waves:    2885
 k-point 24 :   0.4286 0.0000 0.4000  plane waves:    2889
 k-point 25 :   0.1429 0.1429 0.4000  plane waves:    2875
 k-point 26 :   0.2857 0.1429 0.4000  plane waves:    2881
 k-point 27 :   0.4286 0.1429 0.4000  plane waves:    2895
 k-point 28 :   0.2857 0.2857 0.4000  plane waves:    2898
 k-point 29 :   0.4286 0.2857 0.4000  plane waves:    2892
 k-point 30 :   0.4286 0.4286 0.4000  plane waves:    2887

 maximum and minimum number of plane-waves per node :       377      343

 maximum number of plane-waves:      2898
 maximum index in each direction:
   IXMAX=    7   IYMAX=    7   IZMAX=   11
   IXMIN=   -8   IYMIN=   -8   IZMIN=  -11

 parallel 3D FFT for wavefunctions:
    minimum data exchange during FFTs selected (reduces bandwidth)
 parallel 3D FFT for charge:
    minimum data exchange during FFTs selected (reduces bandwidth)

 Broyden mixing: mesh for mixing (old mesh)
   NGX = 15   NGY = 15   NGZ = 23
  (NGX  = 64   NGY  = 64   NGZ  = 96)
  gives a total of   5175 points

 initial charge density was supplied:
 charge density of overlapping atoms calculated
 number of electron      26.0000000 magnetization
 keeping initial charge density in first step

 Maximum index for augmentation-charges         1186 (set IRDMAX)

 First call to EWALD:  gamma=   0.366
 Maximum number of real-space cells 3x 3x 2
 Maximum number of reciprocal cells 2x 2x 3

--------------------------------------- Iteration      1(   1)  ---------------------------------------

 eigenvalue-minimisations  :  1200
 total energy-change (2. order) : 0.1774364E+03  (-0.1133485E+04)
 number of electron      26.0000000 magnetization
 augmentation part       26.0000000 magnetization

 Free energy of the ion-electron system (eV)
  alpha Z        PSCENC =        64.20128509
  Ewald energy   TEWEN  =     -1439.91766544
  -Hartree energ DENC   =      -749.41397116
  -exchange      EXHF   =         0.00000000
  -V(xc)+E(xc)   XCENC  =        -1.78998093
  PAW double counting   =      1946.54768465    -1848.13466329
  entropy T*S    EENTRO =        -0.00239712
  eigenvalues    EBANDS =       -41.17710627
  atomic energy  EATOM  =      2247.12322143
  Solvation  Ediel_sol  =         0.00000000
  free energy    TOTEN  =       177.43640696 eV

  energy without entropy =      177.43880408  energy(sigma->0) =      177.43720600

[...]

 eigenvalue-minimisations  :  1328
 total energy-change (2. order) :-0.1775959E+03  (-0.1718926E+03)
 number of electron      26.0000000 magnetization
 augmentation part       26.0000000 magnetization

[...]

 Broyden mixing:
  rms(total) = 0.41480E+00    rms(broyden)= 0.41480E+00
  rms(prec ) = 0.60178E+00
  weight for this iteration     100.00

[...]

 eigenvalues of (default mixing * dielectric matrix)
  average eigenvalue GAMMA=   2.2930
  2.2930

[...]

 eigenvalue-minimisations  :  1388
 total energy-change (2. order) : 0.2785181E-03  (-0.1495174E-02)
 number of electron      26.0000008 magnetization
 augmentation part        4.0016000 magnetization

[...]

 Broyden mixing:
  rms(total) = 0.28151E-03    rms(broyden)= 0.28151E-03
  rms(prec ) = 0.42572E-03
  weight for this iteration     100.00

 eigenvalues of (default mixing * dielectric matrix)
  average eigenvalue GAMMA=   1.7712
  3.3466  2.5624  1.9779  1.9779  1.2212  1.2212  0.9314  0.9314

[...]

--------------------------------------- Iteration      1(  14)  ---------------------------------------

 eigenvalue-minimisations  :   888
 total energy-change (2. order) :-0.4639151E-07  (-0.6231948E-07)
 number of electron      26.0000008 magnetization
 augmentation part        4.0023836 magnetization

 Free energy of the ion-electron system (eV)
  alpha Z        PSCENC =        64.20128509
  Ewald energy   TEWEN  =     -1439.91766544
  -Hartree energ DENC   =      -753.76816190
  -exchange      EXHF   =         0.00000000
  -V(xc)+E(xc)   XCENC  =        -0.92245482
  PAW double counting   =      2420.19690622    -2324.80537817
  entropy T*S    EENTRO =        -0.00007865
  eigenvalues    EBANDS =      -226.95687658
  atomic energy  EATOM  =      2247.12322143
  Solvation  Ediel_sol  =         0.00000000
  free energy    TOTEN  =       -14.84920283 eV

  energy without entropy =      -14.84912418  energy(sigma->0) =      -14.84917662

 average (electrostatic) potential at core
  the test charge radii are     1.2767  1.0856  1.0621
  (the norm of the test charge is              1.0000)
       1 -14.6573       2 -14.6573       3-107.4217       4 -51.6545

 E-fermi :   3.0802     XC(G=0):  -8.7549     alpha+bet : -8.3023

 k-point     1 :       0.0000    0.0000    0.0000
  band No.  band energies     occupation
      1     -19.2925      2.00000
      2     -19.2812      2.00000
      3     -19.2812      2.00000
      4     -19.2622      2.00000
      5     -19.2456      2.00000
      6      -9.1735      2.00000
      7      -7.4350      2.00000
      8      -3.5299      2.00000
      9       0.4613      2.00000
     10       0.4613      2.00000
     11       1.8435      2.00000
     12       2.9262      1.96392
     13       3.1784      0.26985
     14       3.1784      0.26984
     15       4.1223     -0.00000
     16       4.3907     -0.00000
     17       6.1886     -0.00000
     18       6.1886     -0.00000
     19       6.3560     -0.00000
     20       8.8946      0.00000

[...]

 k-point    30 :       0.4286    0.4286    0.4000
  band No.  band energies     occupation
      1     -19.2914      2.00000
      2     -19.2912      2.00000
      3     -19.2580      2.00000
      4     -19.2549      2.00000
      5     -19.2547      2.00000
      6      -7.5540      2.00000
      7      -7.3488      2.00000
      8      -3.3722      2.00000
      9      -3.3077      2.00000
     10      -0.3733      2.00000
     11      -0.1381      2.00000
     12       0.4302      2.00000
     13       0.5792      2.00000
     14       5.4376     -0.00000
     15       6.1178     -0.00000
     16       6.4268     -0.00000
     17       7.2428     -0.00000
     18       7.6973     -0.00000
     19       8.3681     -0.00000
     20       8.8223      0.00000

 soft charge-density along one line, spin component           1
         0         1         2         3         4         5         6         7         8         9
 total charge-density along one line

------------------------ aborting loop because EDIFF is reached ----------------------------------------

  FORCE on cell =-STRESS in cart. coord.  units (eV):
  Direction    XX          YY          ZZ          XY          YZ          ZX
  Alpha Z    64.20129    64.20129    64.20129
  Ewald    -439.74121  -439.74123  -560.43629     0.00000     0.00000    -0.00000
  Hartree   290.63399   290.63400   172.50534    -0.00000    -0.00000    -0.00000
  E(xc)    -113.02344  -113.02344  -112.98330    -0.00000     0.00000     0.00000
  Local    -319.83728  -319.83727   -80.97004    -0.00000    -0.00000     0.00000
  n-local   152.88085   157.27595   155.25910    -0.05907     0.43374    -0.94020
  augment   139.20343   139.20343   139.17315    -0.00000    -0.00000    -0.00000
  Kinetic   219.16896   227.99724   223.22545    -1.21416     2.07882    -0.88401
  Fock        0.00000     0.00000     0.00000     0.00000     0.00000     0.00000
  Total       0.09827     0.09827    -0.02530     0.00000     0.00000    -0.00000
  in kB       1.38543     1.38543    -0.35672     0.00000     0.00000    -0.00000

 VOLUME and BASIS-vectors are now :
  energy-cutoff  :      500.00
  volume of cell :      113.64
      direct lattice vectors                 reciprocal lattice vectors
     4.300140858  0.000000000  0.000000000     0.232550522  0.000000000  0.000000000
     0.000000000  4.300140858  0.000000000     0.000000000  0.232550522  0.000000000
     0.000000000  0.000000000  6.145861149     0.000000000  0.000000000  0.162711128

  length of vectors
     4.300140858  4.300140858  6.145861149     0.232550522  0.232550522  0.162711128

 FORCES acting on ions
    electron-ion (+dipol)            ewald-force                    non-local-force                 convergence-correction
   0.315E-14 -.267E-14 0.478E+02   0.261E-14 -.178E-15 -.473E+02   0.000E+00 0.434E-18 -.439E+00   -.544E-15 0.303E-14 -.273E-03
   -.504E-14 0.659E-14 -.478E+02   -.168E-14 -.547E-14 0.473E+02   0.000E+00 0.163E-18 0.439E+00   0.165E-14 0.541E-14 0.273E-03
   -.229E-13 0.177E-13 0.723E-06   -.341E-14 0.631E-14 0.425E-05   -.139E-16 0.208E-16 0.000E+00   -.475E-13 -.732E-14 -.261E-07
   0.155E-13 0.773E-13 0.921E-07   0.139E-14 0.780E-16 0.515E-06   -.694E-17 0.000E+00 0.000E+00   -.538E-14 -.598E-15 0.750E-08
   -.934E-14 0.989E-13 0.345E-06   -.109E-14 0.740E-15 -.355E-14   -.208E-16 0.214E-16 0.000E+00   -.518E-13 0.512E-15 -.177E-07

 POSITION                                       TOTAL-FORCE (eV/Angst)
      2.15007      0.00000      4.46027        -0.000000     -0.000000      0.012666
      0.00000      2.15007      1.68559         0.000000     -0.000000     -0.012666
      0.00000      0.00000      0.00000        -0.000000     -0.000000      0.000000
      2.15007      2.15007      3.07293        -0.000000      0.000000      0.000000
    total drift:                               -0.000000      0.000000      0.000000

  FREE ENERGIE OF THE ION-ELECTRON SYSTEM (eV)
  free  energy   TOTEN  =       -14.84920283 eV

  energy  without entropy=      -14.84912418  energy(sigma->0) =      -14.84917662

 writing wavefunctions