 vasp.5.4.4.18Apr17-6-g9f103f2a35 (build Dec 27 2023 19:01:38) complex

 executed on             LinuxIFC date 2024.09.10  14:34:00

 INCAR:
 POTCAR:    PAW_PBE Ga 08Apr2002
 POTCAR:    PAW_PBE Bi_d 06Sep2000
 POTCAR:    PAW_PBE As 22Sep2009
 POTCAR:    PAW_PBE Ga 08Apr2002
   VRHFIN =Ga: s2p1

   TITEL  = PAW_PBE Ga 08Apr2002
   POMASS =   69.723; ZVAL   =    3.000    mass and valenz
   ENMAX  =  134.678; ENMIN  =  101.009 eV

 POTCAR:    PAW_PBE Bi_d 06Sep2000
   VRHFIN =Bi:

   TITEL  = PAW_PBE Bi_d 06Sep2000
   POMASS =  208.980; ZVAL   =   15.000    mass and valenz
   ENMAX  =  242.839; ENMIN  =  182.129 eV

 POTCAR:    PAW_PBE As 22Sep2009
   VRHFIN =As: s2p3

   TITEL  = PAW_PBE As 22Sep2009
   POMASS =   74.922; ZVAL   =    5.000    mass and valenz
   ENMAX  =  208.702; ENMIN  =  156.526 eV

 Optimization of the real space projectors (new method)

 maximal supplied QI-value         = 14.36
 optimisation between [QCUT,QGAM] = [ 11.35, 22.84] = [ 36.05,146.02] Ry
 Optimized for a Real-space Cutoff    1.43 Angstroem

   l    n(q)    QCUT    max X(q) W(low)/X(q) W(high)/X(q)  e(spline)
   0     10    11.346    81.156    0.45E-04    0.70E-04    0.62E-07
   0     10    11.346    65.205    0.45E-04    0.72E-04    0.63E-07
   1      9    11.346    44.874    0.15E-03    0.63E-04    0.19E-06
   1      9    11.346    25.010    0.16E-03    0.59E-04    0.19E-06
   2      9    11.346     5.217    0.61E-04    0.14E-03    0.62E-07
 Optimization of the real space projectors (new method)

[...]

   l    n(q)    QCUT    max X(q) W(low)/X(q) W(high)/X(q)  e(spline)
   2      9    11.338     4.360    0.29E-04    0.91E-04    0.84E-07
   2      9    11.338     7.451    0.91E-04    0.83E-04    0.19E-06
   0      9    11.338    21.015    0.59E-04    0.59E-05    0.80E-07
   0      9    11.338     9.183    0.87E-04    0.88E-05    0.12E-06
   1      9    11.338    25.904    0.84E-04    0.19E-03    0.11E-06
   1      9    11.338    13.553    0.73E-04    0.17E-03    0.10E-06
 Optimization of the real space projectors (new method)

 maximal supplied QI-value         = 17.95
 optimisation between [QCUT,QGAM] = [ 11.31, 22.80] = [ 35.82,145.56] Ry
 Optimized for a Real-space Cutoff    1.31 Angstroem

   l    n(q)    QCUT    max X(q) W(low)/X(q) W(high)/X(q)  e(spline)
   0      9    11.310   117.213    0.44E-04    0.60E-04    0.75E-07
   0      9    11.310    98.411    0.42E-04    0.60E-04    0.74E-07
   1      8    11.310    10.093    0.11E-03    0.13E-03    0.10E-06
   1      8    11.310     5.228    0.97E-04    0.12E-03    0.93E-07
   2      8    11.310     4.067    0.36E-04    0.60E-04    0.60E-07
  PAW_PBE Ga 08Apr2002                  :
  PAW_PBE Bi_d 06Sep2000                :
  PAW_PBE As 22Sep2009                  :

 POSCAR: Ga2 Bi1 As1
  positions in direct lattice
 exchange correlation table for  LEXCH =        8
   RHO(1)=    0.500       N(1)  =     2000
   RHO(2)=  100.500       N(2)  =     4000

 ion  position               nearest neighbor table
   1  0.500  0.000  0.726-   4 2.56   4 2.56   3 2.73   3 2.73
   2  0.000  0.500  0.274-   4 2.56   4 2.56   3 2.73   3 2.73
   3  0.000  0.000  0.000-   1 2.73   1 2.73   2 2.73   2 2.73
   4  0.500  0.500  0.500-   2 2.56   2 2.56   1 2.56   1 2.56

  LATTYP: Found a simple tetragonal cell.
 ALAT       =     4.3001408577
 C/A-ratio  =     1.4292232167

  Lattice vectors:

 A1 = (   4.3001408577,   0.0000000000,   0.0000000000)
 A2 = (   0.0000000000,   4.3001408577,   0.0000000000)
 A3 = (   0.0000000000,   0.0000000000,   6.1458611488)

Analysis of symmetry for initial positions (statically):
 Subroutine PRICEL returns:
 Original cell was already a primitive cell.

 Routine SETGRP: Setting up the symmetry group for a
 simple tetragonal supercell.

 Subroutine GETGRP returns: Found  8 space group operations
 (whereof  8 operations were pure point group operations)
 out of a pool of 16 trial point group operations.

The static configuration has the point symmetry D_2d.

Analysis of symmetry for dynamics (positions and initial velocities):
 Subroutine PRICEL returns:
 Original cell was already a primitive cell.

 Routine SETGRP: Setting up the symmetry group for a
 simple tetragonal supercell.

 Subroutine GETGRP returns: Found  8 space group operations
 (whereof  8 operations were pure point group operations)
 out of a pool of 16 trial point group operations.

The dynamic configuration has the point symmetry D_2d.

 Subroutine INISYM returns: Found  8 space group operations
 (whereof  8 operations are pure point group operations),
 and found     1 'primitive' translations

 KPOINTS: Automatically generated mesh
  k-points in reciprocal lattice
Space group operators:
 irot       det(A)        alpha          n_x          n_y          n_z        tau_x        tau_y        tau_z
    1     1.000000     0.000001     1.000000     0.000000     0.000000     0.000000     0.000000     0.000000
    2    -1.000000    90.000000     0.000000     0.000000    -1.000000     0.000000     0.000000     0.000000
    3     1.000000   180.000000     0.000000     0.000000     1.000000     0.000000     0.000000     0.000000
    4    -1.000000    90.000000     0.000000     0.000000     1.000000     0.000000     0.000000     0.000000
    5    -1.000000   180.000000     0.000000     1.000000     0.000000     0.000000     0.000000     0.000000
    6     1.000000   180.000000     0.707107     0.707107     0.000000     0.000000     0.000000     0.000000
    7    -1.000000   180.000000     1.000000     0.000000     0.000000     0.000000     0.000000     0.000000
    8     1.000000   180.000000     0.707107    -0.707107     0.000000     0.000000     0.000000     0.000000

 Subroutine IBZKPT_HF returns following result:

 Found    147 k-points in 1st BZ
 the following    147 k-points will be used (e.g. in the exchange kernel)
 Following reciprocal coordinates:   # in IRBZ
  0.000000  0.000000  0.000000    0.01333333   1 t-inv F
  0.200000  0.000000  0.000000    0.01333333   2 t-inv F
  0.400000  0.000000  0.000000    0.01333333   3 t-inv F
  0.200000  0.200000  0.000000    0.01333333   4 t-inv F
  0.400000  0.200000  0.000000    0.01333333   5 t-inv F
  0.400000  0.400000  0.000000    0.01333333   6 t-inv F
  0.000000  0.000000  0.333333    0.01333333   7 t-inv F
  0.200000  0.000000  0.333333    0.01333333   8 t-inv F
  0.400000  0.000000  0.333333    0.01333333   9 t-inv F
  0.200000  0.200000  0.333333    0.01333333  10 t-inv F
  0.400000  0.200000  0.333333    0.01333333  11 t-inv F
  0.400000  0.400000  0.333333    0.01333333  12 t-inv F
  0.500000  0.500000  0.000000    0.00000000  13 t-inv F
  0.485714  0.485714  0.000000    0.00000000  14 t-inv F
  0.471429  0.471429  0.000000    0.00000000  15 t-inv F
  0.457143  0.457143  0.000000    0.00000000  16 t-inv F
  0.442857  0.442857  0.000000    0.00000000  17 t-inv F
  0.428571  0.428571  0.000000    0.00000000  18 t-inv F
  0.414286  0.414286  0.000000    0.00000000  19 t-inv F
  0.400000  0.400000  0.000000    0.00000000  20 t-inv F
  0.385714  0.385714  0.000000    0.00000000  21 t-inv F
  0.371429  0.371429  0.000000    0.00000000  22 t-inv F
  0.357143  0.357143  0.000000    0.00000000  23 t-inv F
  0.342857  0.342857  0.000000    0.00000000  24 t-inv F
  0.328571  0.328571  0.000000    0.00000000  25 t-inv F
  0.314286  0.314286  0.000000    0.00000000  26 t-inv F
  0.300000  0.300000  0.000000    0.00000000  27 t-inv F
  0.285714  0.285714  0.000000    0.00000000  28 t-inv F
  0.271429  0.271429  0.000000    0.00000000  29 t-inv F
  0.257143  0.257143  0.000000    0.00000000  30 t-inv F
  0.242857  0.242857  0.000000    0.00000000  31 t-inv F
  0.228571  0.228571  0.000000    0.00000000  32 t-inv F
  0.214286  0.214286  0.000000    0.00000000  33 t-inv F
  0.200000  0.200000  0.000000    0.00000000  34 t-inv F
  0.185714  0.185714  0.000000    0.00000000  35 t-inv F
  0.171429  0.171429  0.000000    0.00000000  36 t-inv F
  0.157143  0.157143  0.000000    0.00000000  37 t-inv F
  0.142857  0.142857  0.000000    0.00000000  38 t-inv F
  0.128571  0.128571  0.000000    0.00000000  39 t-inv F
  0.114286  0.114286  0.000000    0.00000000  40 t-inv F
  0.100000  0.100000  0.000000    0.00000000  41 t-inv F
  0.085714  0.085714  0.000000    0.00000000  42 t-inv F
  0.071429  0.071429  0.000000    0.00000000  43 t-inv F
  0.057143  0.057143  0.000000    0.00000000  44 t-inv F
  0.042857  0.042857  0.000000    0.00000000  45 t-inv F
  0.028571  0.028571  0.000000    0.00000000  46 t-inv F
  0.014286  0.014286  0.000000    0.00000000  47 t-inv F
  0.000000  0.000000  0.000000    0.00000000  48 t-inv F
  0.000000  0.000000  0.000000    0.00000000  49 t-inv F
  0.000000  0.000000  0.014286    0.00000000  50 t-inv F
  0.000000  0.000000  0.028571    0.00000000  51 t-inv F
  0.000000  0.000000  0.042857    0.00000000  52 t-inv F
  0.000000  0.000000  0.057143    0.00000000  53 t-inv F
  0.000000  0.000000  0.071429    0.00000000  54 t-inv F
  0.000000  0.000000  0.085714    0.00000000  55 t-inv F
  0.000000  0.000000  0.100000    0.00000000  56 t-inv F
  0.000000  0.000000  0.114286    0.00000000  57 t-inv F
  0.000000  0.000000  0.128571    0.00000000  58 t-inv F
  0.000000  0.000000  0.142857    0.00000000  59 t-inv F
  0.000000  0.000000  0.157143    0.00000000  60 t-inv F
[...]
  0.000000  0.200000  0.333333    0.01333333   8 t-inv T
  0.200000  0.000000 -0.333333    0.01333333   8 t-inv T
  0.000000 -0.200000  0.333333    0.01333333   8 t-inv T
 -0.400000  0.000000 -0.333333    0.01333333   9 t-inv T
  0.000000  0.400000  0.333333    0.01333333   9 t-inv T
  0.400000  0.000000 -0.333333    0.01333333   9 t-inv T
  0.000000 -0.400000  0.333333    0.01333333   9 t-inv T
 -0.400000 -0.200000 -0.333333    0.01333333  11 t-inv T
 -0.200000  0.400000  0.333333    0.01333333  11 t-inv T
  0.400000  0.200000 -0.333333    0.01333333  11 t-inv T
  0.200000 -0.400000  0.333333    0.01333333  11 t-inv T
 -0.400000  0.200000 -0.333333    0.01333333  11 t-inv T
 -0.200000 -0.400000  0.333333    0.01333333  11 t-inv T
  0.400000 -0.200000 -0.333333    0.01333333  11 t-inv T
  0.200000  0.400000  0.333333    0.01333333  11 t-inv T

 SYSTEM =  Ga2BiAs
 POSCAR =  Ga2 Bi1 As1

 Startparameter for this run:
   NWRITE =      2    write-flag & timer
   PREC   = accura    normal or accurate (medium, high low for compatibility)
   ISTART =      0    job   : 0-new  1-cont  2-samecut
   ICHARG =      2    charge: 1-file 2-atom 10-const
   ISPIN  =      1    spin polarized calculation?
   LNONCOLLINEAR =      F non collinear calculations
   LSORBIT =      F    spin-orbit coupling
   INIWAV =      1    electr: 0-lowe 1-rand  2-diag
   LASPH  =      F    aspherical Exc in radial PAW
   METAGGA=      F    non-selfconsistent MetaGGA calc.

 Electronic Relaxation 1
   ENCUT  =  500.0 eV  36.75 Ry    6.06 a.u.   7.84  7.84 11.21*2*pi/ulx,y,z
   ENINI  =  500.0     initial cutoff
   ENAUG  =  462.8 eV  augmentation charge cutoff
   NELM   =     60;   NELMIN=  2; NELMDL= -5     # of ELM steps
   EDIFF  = 0.1E-05   stopping-criterion for ELM
   LREAL  =      T    real-space projection
   NLSPLINE    = F    spline interpolate recip. space projectors
[...]
   0.00000000  0.00000000  0.07670667       0.000
   0.00000000  0.00000000  0.07903112       0.000
   0.00000000  0.00000000  0.08135556       0.000

 k-points in reciprocal lattice and weights: Automatically generated mesh
   0.00000000  0.00000000  0.00000000       0.013
   0.20000000  0.00000000  0.00000000       0.053
   0.40000000  0.00000000  0.00000000       0.053
   0.20000000  0.20000000  0.00000000       0.053
   0.40000000  0.20000000  0.00000000       0.107
   0.40000000  0.40000000  0.00000000       0.053
   0.00000000  0.00000000  0.33333333       0.027
   0.20000000  0.00000000  0.33333333       0.107
   0.40000000  0.00000000  0.33333333       0.107
   0.20000000  0.20000000  0.33333333       0.107
   0.40000000  0.20000000  0.33333333       0.213
   0.40000000  0.40000000  0.33333333       0.107
   0.50000000  0.50000000  0.00000000       0.000
   0.48571429  0.48571429  0.00000000       0.000
   0.47142857  0.47142857  0.00000000       0.000
   0.45714286  0.45714286  0.00000000       0.000
   0.44285714  0.44285714  0.00000000       0.000
   0.42857143  0.42857143  0.00000000       0.000
   0.41428571  0.41428571  0.00000000       0.000
   0.40000000  0.40000000  0.00000000       0.000
   0.38571429  0.38571429  0.00000000       0.000
   0.37142857  0.37142857  0.00000000       0.000
   0.35714286  0.35714286  0.00000000       0.000
   0.34285714  0.34285714  0.00000000       0.000
   0.32857143  0.32857143  0.00000000       0.000
   0.31428571  0.31428571  0.00000000       0.000
   0.30000000  0.30000000  0.00000000       0.000
   0.28571429  0.28571429  0.00000000       0.000
   0.27142857  0.27142857  0.00000000       0.000
   0.25714286  0.25714286  0.00000000       0.000
   0.24285714  0.24285714  0.00000000       0.000
   0.22857143  0.22857143  0.00000000       0.000
   0.21428571  0.21428571  0.00000000       0.000
   0.20000000  0.20000000  0.00000000       0.000
   0.18571429  0.18571429  0.00000000       0.000
   0.17142857  0.17142857  0.00000000       0.000
   0.15714286  0.15714286  0.00000000       0.000
   0.14285714  0.14285714  0.00000000       0.000
   0.12857143  0.12857143  0.00000000       0.000
   0.11428571  0.11428571  0.00000000       0.000
   0.10000000  0.10000000  0.00000000       0.000
   0.08571429  0.08571429  0.00000000       0.000
   0.07142857  0.07142857  0.00000000       0.000
   0.05714286  0.05714286  0.00000000       0.000
   0.04285714  0.04285714  0.00000000       0.000
   0.02857143  0.02857143  0.00000000       0.000
   0.01428571  0.01428571  0.00000000       0.000
   0.00000000  0.00000000  0.00000000       0.000
   0.00000000  0.00000000  0.00000000       0.000
   0.00000000  0.00000000  0.01428571       0.000
   0.00000000  0.00000000  0.02857143       0.000
   0.00000000  0.00000000  0.04285714       0.000
   0.00000000  0.00000000  0.05714286       0.000
   0.00000000  0.00000000  0.07142857       0.000
   0.00000000  0.00000000  0.08571429       0.000
   0.00000000  0.00000000  0.10000000       0.000
   0.00000000  0.00000000  0.11428571       0.000
   0.00000000  0.00000000  0.12857143       0.000
   0.00000000  0.00000000  0.14285714       0.000
   0.00000000  0.00000000  0.15714286       0.000
[...]
   0.00000000  0.00000000  0.30000000       0.000
   0.00000000  0.00000000  0.31428571       0.000
   0.00000000  0.00000000  0.32857143       0.000
   0.00000000  0.00000000  0.34285714       0.000
   0.00000000  0.00000000  0.35714286       0.000
   0.00000000  0.00000000  0.37142857       0.000
   0.00000000  0.00000000  0.38571429       0.000
   0.00000000  0.00000000  0.40000000       0.000
   0.00000000  0.00000000  0.41428571       0.000
   0.00000000  0.00000000  0.42857143       0.000
   0.00000000  0.00000000  0.44285714       0.000
   0.00000000  0.00000000  0.45714286       0.000
   0.00000000  0.00000000  0.47142857       0.000
   0.00000000  0.00000000  0.48571429       0.000
   0.00000000  0.00000000  0.50000000       0.000

 position of ions in fractional coordinates (direct lattice)
   0.50000000  0.00000000  0.72573602
   0.00000000  0.50000000  0.27426400
   0.00000000  0.00000000  0.00000000
   0.50000000  0.50000000  0.50000000

 position of ions in cartesian coordinates  (Angst):
   2.15007043  0.00000000  4.46027279
   0.00000000  2.15007043  1.68558848
   0.00000000  0.00000000  0.00000000
   2.15007043  2.15007043  3.07293057

 k-point  1 :   0.0000 0.0000 0.0000  plane waves:    2879
 k-point  2 :   0.2000 0.0000 0.0000  plane waves:    2890
 k-point  3 :   0.4000 0.0000 0.0000  plane waves:    2880
 k-point  4 :   0.2000 0.2000 0.0000  plane waves:    2877
 k-point  5 :   0.4000 0.2000 0.0000  plane waves:    2889
 k-point  6 :   0.4000 0.4000 0.0000  plane waves:    2877
 k-point  7 :   0.0000 0.0000 0.3333  plane waves:    2874
 k-point  8 :   0.2000 0.0000 0.3333  plane waves:    2882
 k-point  9 :   0.4000 0.0000 0.3333  plane waves:    2882
 k-point 10 :   0.2000 0.2000 0.3333  plane waves:    2872
 k-point 11 :   0.4000 0.2000 0.3333  plane waves:    2894
 k-point 12 :   0.4000 0.4000 0.3333  plane waves:    2890
 k-point 13 :   0.5000 0.5000 0.0000  plane waves:    2880
 k-point 14 :   0.4857 0.4857 0.0000  plane waves:    2870
 k-point 15 :   0.4714 0.4714 0.0000  plane waves:    2868
 k-point 16 :   0.4571 0.4571 0.0000  plane waves:    2868
 k-point 17 :   0.4429 0.4429 0.0000  plane waves:    2873
 k-point 18 :   0.4286 0.4286 0.0000  plane waves:    2889
 k-point 19 :   0.4143 0.4143 0.0000  plane waves:    2885
 k-point 20 :   0.4000 0.4000 0.0000  plane waves:    2877
 k-point 21 :   0.3857 0.3857 0.0000  plane waves:    2875
 k-point 22 :   0.3714 0.3714 0.0000  plane waves:    2875
 k-point 23 :   0.3571 0.3571 0.0000  plane waves:    2875
 k-point 24 :   0.3429 0.3429 0.0000  plane waves:    2883
 k-point 25 :   0.3286 0.3286 0.0000  plane waves:    2885
 k-point 26 :   0.3143 0.3143 0.0000  plane waves:    2887
 k-point 27 :   0.3000 0.3000 0.0000  plane waves:    2885
 k-point 28 :   0.2857 0.2857 0.0000  plane waves:    2889
 k-point 29 :   0.2714 0.2714 0.0000  plane waves:    2889
 k-point 30 :   0.2571 0.2571 0.0000  plane waves:    2887
 k-point 31 :   0.2429 0.2429 0.0000  plane waves:    2883
 k-point 32 :   0.2286 0.2286 0.0000  plane waves:    2883
 k-point 33 :   0.2143 0.2143 0.0000  plane waves:    2883
 k-point 34 :   0.2000 0.2000 0.0000  plane waves:    2877
 k-point 35 :   0.1857 0.1857 0.0000  plane waves:    2871
 k-point 36 :   0.1714 0.1714 0.0000  plane waves:    2877
 k-point 37 :   0.1571 0.1571 0.0000  plane waves:    2871
 k-point 38 :   0.1429 0.1429 0.0000  plane waves:    2883
 k-point 39 :   0.1286 0.1286 0.0000  plane waves:    2879
 k-point 40 :   0.1143 0.1143 0.0000  plane waves:    2877
 k-point 41 :   0.1000 0.1000 0.0000  plane waves:    2877
 k-point 42 :   0.0857 0.0857 0.0000  plane waves:    2877
 k-point 43 :   0.0714 0.0714 0.0000  plane waves:    2889
 k-point 44 :   0.0571 0.0571 0.0000  plane waves:    2881
 k-point 45 :   0.0429 0.0429 0.0000  plane waves:    2875
 k-point 46 :   0.0286 0.0286 0.0000  plane waves:    2881
 k-point 47 :   0.0143 0.0143 0.0000  plane waves:    2887
 k-point 48 :   0.0000 0.0000 0.0000  plane waves:    2879
 k-point 49 :   0.0000 0.0000 0.0000  plane waves:    2879
 k-point 50 :   0.0000 0.0000 0.0143  plane waves:    2879
 k-point 51 :   0.0000 0.0000 0.0286  plane waves:    2883
 k-point 52 :   0.0000 0.0000 0.0429  plane waves:    2883
 k-point 53 :   0.0000 0.0000 0.0571  plane waves:    2887
 k-point 54 :   0.0000 0.0000 0.0714  plane waves:    2879
 k-point 55 :   0.0000 0.0000 0.0857  plane waves:    2879
 k-point 56 :   0.0000 0.0000 0.1000  plane waves:    2879
 k-point 57 :   0.0000 0.0000 0.1143  plane waves:    2875
 k-point 58 :   0.0000 0.0000 0.1286  plane waves:    2875
 k-point 59 :   0.0000 0.0000 0.1429  plane waves:    2875
 k-point 60 :   0.0000 0.0000 0.1571  plane waves:    2867
[...]
 k-point 70 :   0.0000 0.0000 0.3000  plane waves:    2874
 k-point 71 :   0.0000 0.0000 0.3143  plane waves:    2874
 k-point 72 :   0.0000 0.0000 0.3286  plane waves:    2874
 k-point 73 :   0.0000 0.0000 0.3429  plane waves:    2882
 k-point 74 :   0.0000 0.0000 0.3571  plane waves:    2878
 k-point 75 :   0.0000 0.0000 0.3714  plane waves:    2894
 k-point 76 :   0.0000 0.0000 0.3857  plane waves:    2902
 k-point 77 :   0.0000 0.0000 0.4000  plane waves:    2894
 k-point 78 :   0.0000 0.0000 0.4143  plane waves:    2894
 k-point 79 :   0.0000 0.0000 0.4286  plane waves:    2890
 k-point 80 :   0.0000 0.0000 0.4429  plane waves:    2890
 k-point 81 :   0.0000 0.0000 0.4571  plane waves:    2886
 k-point 82 :   0.0000 0.0000 0.4714  plane waves:    2886
 k-point 83 :   0.0000 0.0000 0.4857  plane waves:    2886
 k-point 84 :   0.0000 0.0000 0.5000  plane waves:    2886

 maximum and minimum number of plane-waves per node :       380      345

 maximum number of plane-waves:      2902
 maximum index in each direction:
   IXMAX=    7   IYMAX=    7   IZMAX=   11
   IXMIN=   -8   IYMIN=   -8   IZMIN=  -11

 real space projection operators:
  max/ min on nodes  :        275.24        258.95

 parallel 3D FFT for wavefunctions:
    minimum data exchange during FFTs selected (reduces bandwidth)
 parallel 3D FFT for charge:
    minimum data exchange during FFTs selected (reduces bandwidth)

 FFT grid for exact exchange (Hartree Fock)
  NGX = 24; NGY = 24; NGZ = 36

 Radii for the augmentation spheres in the non-local exchange
 for species   1 augmentation radius   1.596 (default was   1.277)
       energy cutoff for augmentation   2000.0
 for species   2 augmentation radius   1.357 (default was   1.086)
       energy cutoff for augmentation   2000.0
 for species   3 augmentation radius   1.328 (default was   1.062)
       energy cutoff for augmentation   2000.0

 real space projection operators:
  max/ min on nodes  :        246.09        236.33

 Maximum index for augmentation-charges in exchange          414
  SETUP_FOCK is finished

 Broyden mixing: mesh for mixing (old mesh)
   NGX = 15   NGY = 15   NGZ = 23
  (NGX  = 64   NGY  = 64   NGZ  = 96)
  gives a total of   5175 points

 initial charge density was supplied:
 charge density of overlapping atoms calculated
 number of electron      26.0000000 magnetization
 keeping initial charge density in first step

 Maximum index for non-local projection operator          678
 Maximum index for augmentation-charges         1186 (set IRDMAX)

 First call to EWALD:  gamma=   0.366
 Maximum number of real-space cells 3x 3x 2
 Maximum number of reciprocal cells 2x 2x 3

--------------------------------------- Iteration      1(   1)  ---------------------------------------

 eigenvalue-minimisations  :  4216
 total energy-change (2. order) : 0.3088705E+03  (-0.9945936E+03)
 number of electron      26.0000000 magnetization
 augmentation part       26.0000000 magnetization

 Free energy of the ion-electron system (eV)
  alpha Z        PSCENC =        64.20128509
  Ewald energy   TEWEN  =     -1439.91766544
  -Hartree energ DENC   =      -749.41397116
  -exchange      EXHF   =         0.00000000
  -V(xc)+E(xc)   XCENC  =        -4.09882595
  PAW double counting   =      1947.71887434    -1859.61130231
  entropy T*S    EENTRO =        -0.00589056
  eigenvalues    EBANDS =       106.17557742
  atomic energy  EATOM  =      2243.82239720
  free energy    TOTEN  =       308.87047863 eV

  energy without entropy =      308.87636919  energy(sigma->0) =      308.87342391
  exchange ACFDT corr.  =         0.00000000  see jH, gK, PRB 81, 115126

[...]

 eigenvalue-minimisations  :  6048
 total energy-change (2. order) :-0.2061336E+03  (-0.2005728E+03)
 number of electron      26.0000000 magnetization
 augmentation part       26.0000000 magnetization

[...]

--------------------------------------- Iteration      1(  34)  ---------------------------------------

 eigenvalue-minimisations  :     0
 total energy-change (2. order) :-0.8021216E-06  (-0.1652652E-07)
 number of electron      26.0000008 magnetization
 augmentation part        4.1789942 magnetization

 Free energy of the ion-electron system (eV)
  alpha Z        PSCENC =        64.20128509
  Ewald energy   TEWEN  =     -1439.91766544
  -Hartree energ DENC   =      -755.46349921
  -exchange      EXHF   =        49.14696481
  -V(xc)+E(xc)   XCENC  =        -3.30625581
  PAW double counting   =      2680.77605792    -2595.41875685
  entropy T*S    EENTRO =        -0.00075260
  eigenvalues    EBANDS =      -261.47767201
  atomic energy  EATOM  =      2243.82239720
  free energy    TOTEN  =       -17.63789937 eV

  energy without entropy =      -17.63714677  energy(sigma->0) =      -17.63752307
  exchange ACFDT corr.  =        -0.00025285  see jH, gK, PRB 81, 115126

  average scaling for gradient   1.1119

 average (electrostatic) potential at core
  the test charge radii are     1.2767  1.0856  1.0621
  (the norm of the test charge is              1.0000)
       1 -11.6681       2 -11.6682       3-101.2892       4 -47.9954

 E-fermi :   2.8579     XC(G=0):  -7.3194     alpha+bet : -8.3023

 k-point     1 :       0.0000    0.0000    0.0000
  band No.  band energies     occupation
      1     -21.4560      2.00000
      2     -21.4443      2.00000
      3     -21.4443      2.00000
      4     -21.4222      2.00000
      5     -21.4032      2.00000
      6     -10.7240      2.00000
      7      -8.7042      2.00000
      8      -4.5270      2.00000
      9      -0.1454      2.00000
     10      -0.1453      2.00000
     11       2.0055      2.00000
     12       2.5741      2.00000
     13       2.8579      1.00550
     14       2.8580      0.99468
     15       4.3239      0.00000
     16       4.5703      0.00000
     17       6.4935      0.00000
     18       6.4935      0.00000
     19       6.6685      0.00000
     20       9.3512      0.00000

[...]

 k-point    84 :       0.0000    0.0000    0.5000
  band No.  band energies     occupation
      1     -21.4561      2.00000
      2     -21.4444      2.00000
      3     -21.4443      2.00000
      4     -21.4219      2.00000
      5     -21.4032      2.00000
      6     -10.0878      2.00000
      7      -9.7990      2.00000
      8      -2.0677      2.00000
      9      -2.0377      2.00000
     10       0.3202      2.00000
     11       0.3202      2.00000
     12       1.7090      2.00000
     13       1.7091      2.00000
     14       4.3131      0.00000
     15       4.9411      0.00000
     16       5.7895      0.00000
     17       6.1477      0.00000
     18       9.0482      0.00000
     19       9.0882      0.00000
     20       9.4555      0.00000

 soft charge-density along one line, spin component           1
         0         1         2         3         4         5         6         7         8         9
 total charge-density along one line

------------------------ aborting loop because EDIFF is reached ----------------------------------------

 VOLUME and BASIS-vectors are now :
  energy-cutoff  :      500.00
  volume of cell :      113.64
      direct lattice vectors                 reciprocal lattice vectors
     4.300140858  0.000000000  0.000000000     0.232550522  0.000000000  0.000000000
     0.000000000  4.300140858  0.000000000     0.000000000  0.232550522  0.000000000
     0.000000000  0.000000000  6.145861149     0.000000000  0.000000000  0.162711128

  length of vectors
     4.300140858  4.300140858  6.145861149     0.232550522  0.232550522  0.162711128

 FORCES acting on ions:
    Electron-Ion                     Ewald-Force                    Non-Local-Force
   -.264E-06 -.398E-07 0.477E+02   0.261E-14 -.178E-15 -.473E+02   0.000E+00 0.000E+00 -.392E+00
   -.141E-06 -.131E-07 -.477E+02   -.168E-14 -.547E-14 0.473E+02   0.000E+00 -.434E-18 0.392E+00
   0.852E-06 -.154E-05 -.529E-03   -.341E-14 0.631E-14 0.425E-05   0.000E+00 0.000E+00 0.000E+00
   0.262E-06 -.219E-06 -.611E-04   0.139E-14 0.780E-16 0.515E-06   -.347E-17 0.000E+00 0.000E+00
   0.697E-06 -.187E-05 -.326E-03   -.109E-14 0.740E-15 -.355E-14   -.347E-17 -.434E-18 0.000E+00

 POSITION                                       TOTAL-FORCE (eV/Angst)
      2.15007      0.00000      4.46027         0.000000      0.000000      0.066106
      0.00000      2.15007      1.68559        -0.000000      0.000000     -0.066106
      0.00000      0.00000      0.00000        -0.000000      0.000000      0.000000
      2.15007      2.15007      3.07293        -0.000000     -0.000000      0.000000
    total drift:                                0.000001     -0.000002     -0.000326

  FREE ENERGIE OF THE ION-ELECTRON SYSTEM (eV)
  free  energy   TOTEN  =       -17.63789937 eV

  energy  without entropy=      -17.63714677  energy(sigma->0) =      -17.63752307