 vasp.5.4.4.18Apr17-6-g9f103f2a35 (build Dec 22 2021 20:15:33) complex

 executed on             LinuxIFC date 2022.01.21  21:39:21

 INCAR:
 POTCAR:    PAW_PBE Ga 08Apr2002
 POTCAR:    PAW_PBE Bi_d 06Sep2000
 POTCAR:    PAW_PBE As 22Sep2009
 POTCAR:    PAW_PBE Ga 08Apr2002
   VRHFIN =Ga: s2p1

   TITEL  = PAW_PBE Ga 08Apr2002
   POMASS =   69.723; ZVAL   =    3.000    mass and valenz
   ENMAX  =  134.678; ENMIN  =  101.009 eV

 POTCAR:    PAW_PBE Bi_d 06Sep2000
   VRHFIN =Bi:

   TITEL  = PAW_PBE Bi_d 06Sep2000
   POMASS =  208.980; ZVAL   =   15.000    mass and valenz
   ENMAX  =  242.839; ENMIN  =  182.129 eV

 POTCAR:    PAW_PBE As 22Sep2009
   VRHFIN =As: s2p3

   TITEL  = PAW_PBE As 22Sep2009
   POMASS =   74.922; ZVAL   =    5.000    mass and valenz
   ENMAX  =  208.702; ENMIN  =  156.526 eV

  PAW_PBE Ga 08Apr2002                  :
  PAW_PBE Bi_d 06Sep2000                :
  PAW_PBE As 22Sep2009                  :

 POSCAR: Ga2 Bi1 As1
  positions in direct lattice
 exchange correlation table for  LEXCH =        8
   RHO(1)=    0.500       N(1)  =     2000
   RHO(2)=  100.500       N(2)  =     4000

 ion  position               nearest neighbor table
   1  0.500  0.000  0.726-   4 2.56   4 2.56   3 2.73   3 2.73
   2  0.000  0.500  0.274-   4 2.56   4 2.56   3 2.73   3 2.73
   3  0.000  0.000  0.000-   1 2.73   1 2.73   2 2.73   2 2.73
   4  0.500  0.500  0.500-   2 2.56   2 2.56   1 2.56   1 2.56

  LATTYP: Found a simple tetragonal cell.
 ALAT       =     4.3001408577
 C/A-ratio  =     1.4292232167

  Lattice vectors:

 A1 = (   4.3001408577,   0.0000000000,   0.0000000000)
 A2 = (   0.0000000000,   4.3001408577,   0.0000000000)
 A3 = (   0.0000000000,   0.0000000000,   6.1458611488)

Analysis of symmetry for initial positions (statically):
 Subroutine PRICEL returns:
 Original cell was already a primitive cell.

 Routine SETGRP: Setting up the symmetry group for a
 simple tetragonal supercell.

 Subroutine GETGRP returns: Found  8 space group operations
 (whereof  8 operations were pure point group operations)
 out of a pool of 16 trial point group operations.

The static configuration has the point symmetry D_2d.

Analysis of symmetry for dynamics (positions and initial velocities):
 Subroutine PRICEL returns:
 Original cell was already a primitive cell.

[...]

The dynamic configuration has the point symmetry D_2d.

Analysis of structural, dynamic, and magnetic symmetry:
 Subroutine PRICEL returns:
 Original cell was already a primitive cell.

 Routine SETGRP: Setting up the symmetry group for a
 simple tetragonal supercell.

 Subroutine GETGRP returns: Found  1 space group operations
 (whereof  1 operations were pure point group operations)
 out of a pool of 16 trial point group operations.

The (compounded) configuration has the point symmetry C_1 .

 Subroutine INISYM returns: Found  1 space group operations
 (whereof  1 operations are pure point group operations),
 and found     1 'primitive' translations

 KPOINTS: MP

Automatic generation of k-mesh.
Space group operators:
 irot       det(A)        alpha          n_x          n_y          n_z        tau_x        tau_y        tau_z
    1     1.000000     0.000001     1.000000     0.000000     0.000000     0.000000     0.000000     0.000000

 Subroutine IBZKPT returns following result:

 Found    245 irreducible k-points:

 Following reciprocal coordinates:
            Coordinates               Weight
  0.000000  0.000000  0.000000      1.000000
  0.142857  0.000000  0.000000      1.000000
  0.285714  0.000000  0.000000      1.000000
  0.428571  0.000000  0.000000      1.000000
 -0.428571  0.000000  0.000000      1.000000
 -0.285714  0.000000  0.000000      1.000000
 -0.142857  0.000000  0.000000      1.000000
  0.000000  0.142857  0.000000      1.000000
  0.142857  0.142857  0.000000      1.000000
  0.285714  0.142857  0.000000      1.000000
  0.428571  0.142857  0.000000      1.000000
 -0.428571  0.142857  0.000000      1.000000
 -0.285714  0.142857  0.000000      1.000000
 -0.142857  0.142857  0.000000      1.000000
  0.000000  0.285714  0.000000      1.000000
  0.142857  0.285714  0.000000      1.000000
  0.285714  0.285714  0.000000      1.000000
  0.428571  0.285714  0.000000      1.000000
 -0.428571  0.285714  0.000000      1.000000
 -0.285714  0.285714  0.000000      1.000000
 -0.142857  0.285714  0.000000      1.000000
  0.000000  0.428571  0.000000      1.000000
  0.142857  0.428571  0.000000      1.000000
  0.285714  0.428571  0.000000      1.000000
  0.428571  0.428571  0.000000      1.000000
 -0.428571  0.428571  0.000000      1.000000
 -0.285714  0.428571  0.000000      1.000000
 -0.142857  0.428571  0.000000      1.000000
  0.000000 -0.428571  0.000000      1.000000
  0.142857 -0.428571  0.000000      1.000000
  0.285714 -0.428571  0.000000      1.000000
  0.428571 -0.428571  0.000000      1.000000
 -0.428571 -0.428571  0.000000      1.000000
 -0.285714 -0.428571  0.000000      1.000000
 -0.142857 -0.428571  0.000000      1.000000
  0.000000 -0.285714  0.000000      1.000000
  0.142857 -0.285714  0.000000      1.000000
  0.285714 -0.285714  0.000000      1.000000
  0.428571 -0.285714  0.000000      1.000000
 -0.428571 -0.285714  0.000000      1.000000
 -0.285714 -0.285714  0.000000      1.000000
 -0.142857 -0.285714  0.000000      1.000000
  0.000000 -0.142857  0.000000      1.000000
  0.142857 -0.142857  0.000000      1.000000
  0.285714 -0.142857  0.000000      1.000000
  0.428571 -0.142857  0.000000      1.000000
 -0.428571 -0.142857  0.000000      1.000000
 -0.285714 -0.142857  0.000000      1.000000
 -0.142857 -0.142857  0.000000      1.000000
  0.000000  0.000000  0.200000      1.000000
  0.142857  0.000000  0.200000      1.000000
  0.285714  0.000000  0.200000      1.000000
  0.428571  0.000000  0.200000      1.000000
 -0.428571  0.000000  0.200000      1.000000
 -0.285714  0.000000  0.200000      1.000000
 -0.142857  0.000000  0.200000      1.000000
  0.000000  0.142857  0.200000      1.000000
  0.142857  0.142857  0.200000      1.000000
  0.285714  0.142857  0.200000      1.000000
  0.428571  0.142857  0.200000      1.000000
[...]
 -0.142857 -0.428571 -0.200000      1.000000
  0.000000 -0.285714 -0.200000      1.000000
  0.142857 -0.285714 -0.200000      1.000000
  0.285714 -0.285714 -0.200000      1.000000
  0.428571 -0.285714 -0.200000      1.000000
 -0.428571 -0.285714 -0.200000      1.000000
 -0.285714 -0.285714 -0.200000      1.000000
 -0.142857 -0.285714 -0.200000      1.000000
  0.000000 -0.142857 -0.200000      1.000000
  0.142857 -0.142857 -0.200000      1.000000
  0.285714 -0.142857 -0.200000      1.000000
  0.428571 -0.142857 -0.200000      1.000000
 -0.428571 -0.142857 -0.200000      1.000000
 -0.285714 -0.142857 -0.200000      1.000000
 -0.142857 -0.142857 -0.200000      1.000000

 Following cartesian coordinates:
            Coordinates               Weight
  0.000000  0.000000  0.000000      1.000000
  0.033222  0.000000  0.000000      1.000000
  0.066443  0.000000  0.000000      1.000000
  0.099665  0.000000  0.000000      1.000000
 -0.099665  0.000000  0.000000      1.000000
 -0.066443  0.000000  0.000000      1.000000
 -0.033222  0.000000  0.000000      1.000000
  0.000000  0.033222  0.000000      1.000000
  0.033222  0.033222  0.000000      1.000000
  0.066443  0.033222  0.000000      1.000000
  0.099665  0.033222  0.000000      1.000000
 -0.099665  0.033222  0.000000      1.000000
 -0.066443  0.033222  0.000000      1.000000
 -0.033222  0.033222  0.000000      1.000000
  0.000000  0.066443  0.000000      1.000000
  0.033222  0.066443  0.000000      1.000000
  0.066443  0.066443  0.000000      1.000000
  0.099665  0.066443  0.000000      1.000000
 -0.099665  0.066443  0.000000      1.000000
 -0.066443  0.066443  0.000000      1.000000
 -0.033222  0.066443  0.000000      1.000000
  0.000000  0.099665  0.000000      1.000000
  0.033222  0.099665  0.000000      1.000000
  0.066443  0.099665  0.000000      1.000000
  0.099665  0.099665  0.000000      1.000000
 -0.099665  0.099665  0.000000      1.000000
 -0.066443  0.099665  0.000000      1.000000
 -0.033222  0.099665  0.000000      1.000000
  0.000000 -0.099665  0.000000      1.000000
  0.033222 -0.099665  0.000000      1.000000
  0.066443 -0.099665  0.000000      1.000000
  0.099665 -0.099665  0.000000      1.000000
 -0.099665 -0.099665  0.000000      1.000000
 -0.066443 -0.099665  0.000000      1.000000
 -0.033222 -0.099665  0.000000      1.000000
  0.000000 -0.066443  0.000000      1.000000
  0.033222 -0.066443  0.000000      1.000000
  0.066443 -0.066443  0.000000      1.000000
  0.099665 -0.066443  0.000000      1.000000
 -0.099665 -0.066443  0.000000      1.000000
 -0.066443 -0.066443  0.000000      1.000000
 -0.033222 -0.066443  0.000000      1.000000
  0.000000 -0.033222  0.000000      1.000000
  0.033222 -0.033222  0.000000      1.000000
  0.066443 -0.033222  0.000000      1.000000
  0.099665 -0.033222  0.000000      1.000000
 -0.099665 -0.033222  0.000000      1.000000
 -0.066443 -0.033222  0.000000      1.000000
 -0.033222 -0.033222  0.000000      1.000000
  0.000000  0.000000  0.032542      1.000000
  0.033222  0.000000  0.032542      1.000000
  0.066443  0.000000  0.032542      1.000000
  0.099665  0.000000  0.032542      1.000000
 -0.099665  0.000000  0.032542      1.000000
 -0.066443  0.000000  0.032542      1.000000
 -0.033222  0.000000  0.032542      1.000000
  0.000000  0.033222  0.032542      1.000000
  0.033222  0.033222  0.032542      1.000000
  0.066443  0.033222  0.032542      1.000000
  0.099665  0.033222  0.032542      1.000000
[...]
 -0.033222 -0.099665 -0.032542      1.000000
  0.000000 -0.066443 -0.032542      1.000000
  0.033222 -0.066443 -0.032542      1.000000
  0.066443 -0.066443 -0.032542      1.000000
  0.099665 -0.066443 -0.032542      1.000000
 -0.099665 -0.066443 -0.032542      1.000000
 -0.066443 -0.066443 -0.032542      1.000000
 -0.033222 -0.066443 -0.032542      1.000000
  0.000000 -0.033222 -0.032542      1.000000
  0.033222 -0.033222 -0.032542      1.000000
  0.066443 -0.033222 -0.032542      1.000000
  0.099665 -0.033222 -0.032542      1.000000
 -0.099665 -0.033222 -0.032542      1.000000
 -0.066443 -0.033222 -0.032542      1.000000
 -0.033222 -0.033222 -0.032542      1.000000

 SYSTEM =  Ga2BiAs
 POSCAR =  Ga2 Bi1 As1

 Startparameter for this run:
   NWRITE =      2    write-flag & timer
   PREC   = accura    normal or accurate (medium, high low for compatibility)
   ISTART =      0    job   : 0-new  1-cont  2-samecut
   ICHARG =      2    charge: 1-file 2-atom 10-const
   ISPIN  =      1    spin polarized calculation?
   LNONCOLLINEAR =      T non collinear calculations
   LSORBIT =      T    spin-orbit coupling
   INIWAV =      1    electr: 0-lowe 1-rand  2-diag
   LASPH  =      F    aspherical Exc in radial PAW
   METAGGA=      F    non-selfconsistent MetaGGA calc.

 Electronic Relaxation 1
   ENCUT  =  500.0 eV  36.75 Ry    6.06 a.u.   7.84  7.84 11.21*2*pi/ulx,y,z
   ENINI  =  500.0     initial cutoff
   ENAUG  =  462.8 eV  augmentation charge cutoff
   NELM   =     60;   NELMIN=  2; NELMDL= -5     # of ELM steps
   EDIFF  = 0.1E-05   stopping-criterion for ELM
[...]
 k-point ** :   0.4286-0.4286 0.4000  plane waves:    5774
 k-point ** :  -0.4286-0.4286 0.4000  plane waves:    5774
 k-point ** :  -0.2857-0.4286 0.4000  plane waves:    5784
 k-point ** :  -0.1429-0.4286 0.4000  plane waves:    5790
 k-point ** :   0.0000-0.2857 0.4000  plane waves:    5770
 k-point ** :   0.1429-0.2857 0.4000  plane waves:    5762
 k-point ** :   0.2857-0.2857 0.4000  plane waves:    5796
 k-point ** :   0.4286-0.2857 0.4000  plane waves:    5784
 k-point ** :  -0.4286-0.2857 0.4000  plane waves:    5784
 k-point ** :  -0.2857-0.2857 0.4000  plane waves:    5796
 k-point ** :  -0.1429-0.2857 0.4000  plane waves:    5762
 k-point ** :   0.0000-0.1429 0.4000  plane waves:    5758
 k-point ** :   0.1429-0.1429 0.4000  plane waves:    5750
 k-point ** :   0.2857-0.1429 0.4000  plane waves:    5762
 k-point ** :   0.4286-0.1429 0.4000  plane waves:    5790
 k-point ** :  -0.4286-0.1429 0.4000  plane waves:    5790
 k-point ** :  -0.2857-0.1429 0.4000  plane waves:    5762
 k-point ** :  -0.1429-0.1429 0.4000  plane waves:    5750
 k-point ** :   0.0000 0.0000-0.4000  plane waves:    5788
 k-point ** :   0.1429 0.0000-0.4000  plane waves:    5758
 k-point ** :   0.2857 0.0000-0.4000  plane waves:    5770
 k-point ** :   0.4286 0.0000-0.4000  plane waves:    5778
 k-point ** :  -0.4286 0.0000-0.4000  plane waves:    5778
 k-point ** :  -0.2857 0.0000-0.4000  plane waves:    5770
 k-point ** :  -0.1429 0.0000-0.4000  plane waves:    5758
 k-point ** :   0.0000 0.1429-0.4000  plane waves:    5758
 k-point ** :   0.1429 0.1429-0.4000  plane waves:    5750
 k-point ** :   0.2857 0.1429-0.4000  plane waves:    5762
 k-point ** :   0.4286 0.1429-0.4000  plane waves:    5790
 k-point ** :  -0.4286 0.1429-0.4000  plane waves:    5790
[...]
 k-point ** :  -0.1429-0.4286-0.2000  plane waves:    5774
 k-point ** :   0.0000-0.2857-0.2000  plane waves:    5770
 k-point ** :   0.1429-0.2857-0.2000  plane waves:    5752
 k-point ** :   0.2857-0.2857-0.2000  plane waves:    5770
 k-point ** :   0.4286-0.2857-0.2000  plane waves:    5776
 k-point ** :  -0.4286-0.2857-0.2000  plane waves:    5776
 k-point ** :  -0.2857-0.2857-0.2000  plane waves:    5770
 k-point ** :  -0.1429-0.2857-0.2000  plane waves:    5752
 k-point ** :   0.0000-0.1429-0.2000  plane waves:    5754
 k-point ** :   0.1429-0.1429-0.2000  plane waves:    5746
 k-point ** :   0.2857-0.1429-0.2000  plane waves:    5752
 k-point ** :   0.4286-0.1429-0.2000  plane waves:    5774
 k-point ** :  -0.4286-0.1429-0.2000  plane waves:    5774
 k-point ** :  -0.2857-0.1429-0.2000  plane waves:    5752
 k-point ** :  -0.1429-0.1429-0.2000  plane waves:    5746

 maximum and minimum number of plane-waves per node :       778      672

 maximum number of plane-waves:      5796
 maximum index in each direction:
   IXMAX=    8   IYMAX=    8   IZMAX=   11
   IXMIN=   -8   IYMIN=   -8   IZMIN=  -11

 parallel 3D FFT for wavefunctions:
    minimum data exchange during FFTs selected (reduces bandwidth)
 parallel 3D FFT for charge:
    minimum data exchange during FFTs selected (reduces bandwidth)

 Broyden mixing: mesh for mixing (old mesh)
   NGX = 15   NGY = 15   NGZ = 23
  (NGX  = 64   NGY  = 64   NGZ  = 96)
  gives a total of   5175 points

 initial charge density was supplied:
 charge density of overlapping atoms calculated
 number of electron      26.0000000 magnetization       4.0000000      4.0000000      4.0000000
 keeping initial charge density in first step

 Maximum index for augmentation-charges         1186 (set IRDMAX)

 First call to EWALD:  gamma=   0.366
 Maximum number of real-space cells 3x 3x 2
 Maximum number of reciprocal cells 2x 2x 3

--------------------------------------- Iteration      1(   1)  ---------------------------------------

 eigenvalue-minimisations  : 23552
 total energy-change (2. order) : 0.2092502E+03  (-0.1071830E+04)
 number of electron      26.0000000 magnetization       4.0000000      4.0000000      4.0000000
 augmentation part       26.0000000 magnetization       4.0000000      4.0000000      4.0000000

 Free energy of the ion-electron system (eV)
  alpha Z        PSCENC =        64.20128509
  Ewald energy   TEWEN  =     -1439.91766544
  -Hartree energ DENC   =      -749.41397116
  -exchange      EXHF   =         0.00000000
  -V(xc)+E(xc)   XCENC  =        -0.63881372
  PAW double counting   =      1945.46521363    -1846.94975616
  entropy T*S    EENTRO =         0.00069541
  eigenvalues    EBANDS =       -10.62003985
  atomic energy  EATOM  =      2247.12322143
  Solvation  Ediel_sol  =         0.00000000
  free energy    TOTEN  =       209.25016922 eV

  energy without entropy =      209.24947382  energy(sigma->0) =      209.24993742

[...]

 eigenvalue-minimisations  : 24408
 total energy-change (2. order) :-0.1999400E+03  (-0.1895218E+03)
 number of electron      26.0000000 magnetization       4.0000000      4.0000000      4.0000000
 augmentation part       26.0000000 magnetization       4.0000000      4.0000000      4.0000000

[...]

 Broyden mixing:
  rms(total) = 0.10887E+01    rms(broyden)= 0.10887E+01
  rms(prec ) = 0.11720E+01
  weight for this iteration     100.00

[...]

 eigenvalues of (default mixing * dielectric matrix)
  average eigenvalue GAMMA=   0.8165
  0.8165

[...]

 eigenvalue-minimisations  : 27800
 total energy-change (2. order) : 0.1353505E-02  (-0.1062195E-02)
 number of electron      26.0000008 magnetization      -0.0119799     -0.0119783     -0.0131404
 augmentation part        3.9535141 magnetization      -0.0088402     -0.0088189     -0.0093616

[...]

 Broyden mixing:
  rms(total) = 0.16799E-03    rms(broyden)= 0.16799E-03
  rms(prec ) = 0.24750E-03
  weight for this iteration     100.00

 eigenvalues of (default mixing * dielectric matrix)
  average eigenvalue GAMMA=   1.3624
  3.0830  2.3364  2.2242  1.2938  1.0602  0.8896  0.7489  0.7489  0.6196  0.6196

[...]

--------------------------------------- Iteration      1(  16)  ---------------------------------------

 eigenvalue-minimisations  : 22376
 total energy-change (2. order) :-0.2897527E-06  (-0.4409723E-07)
 number of electron      26.0000008 magnetization      -0.0000363     -0.0000363     -0.0000471
 augmentation part        3.9554456 magnetization      -0.0000346     -0.0000344     -0.0000417

 Free energy of the ion-electron system (eV)
  alpha Z        PSCENC =        64.20128509
  Ewald energy   TEWEN  =     -1439.91766544
  -Hartree energ DENC   =      -754.60604910
  -exchange      EXHF   =         0.00000000
  -V(xc)+E(xc)   XCENC  =        -0.91647577
  PAW double counting   =      2401.19553740    -2306.80066312
  entropy T*S    EENTRO =        -0.00244466
  eigenvalues    EBANDS =      -225.91062824
  atomic energy  EATOM  =      2247.12322143
  Solvation  Ediel_sol  =         0.00000000
  free energy    TOTEN  =       -15.63388243 eV

  energy without entropy =      -15.63143777  energy(sigma->0) =      -15.63306754

 average (electrostatic) potential at core
  the test charge radii are     1.2767  1.0856  1.0621
  (the norm of the test charge is              1.0000)
       1 -14.6618       2 -14.6618       3-107.2407       4 -51.6414

 E-fermi :   3.1844     XC(G=0):  -8.7498     alpha+bet : -8.3023

 k-point     1 :       0.0000    0.0000    0.0000
  band No.  band energies     occupation
      1     -20.9120      1.00000
      2     -20.9120      1.00000
      3     -20.9099      1.00000
      4     -20.9099      1.00000
      5     -17.9694      1.00000
      6     -17.9694      1.00000
      7     -17.9499      1.00000
      8     -17.9499      1.00000
      9     -17.9417      1.00000
     10     -17.9417      1.00000
     11      -9.1504      1.00000
     12      -9.1504      1.00000
     13      -7.3975      1.00000
     14      -7.3975      1.00000
     15      -3.5585      1.00000
     16      -3.5585      1.00000
     17       0.2791      1.00000
     18       0.2791      1.00000
     19       0.5680      1.00000
     20       0.5681      1.00000
     21       1.8524      1.00000
     22       1.8524      1.00000
     23       2.1674      1.00000
     24       2.1674      1.00000
     25       3.3229      0.04270
     26       3.3229      0.04270
     27       3.6240     -0.00401
     28       3.6240     -0.00400
     29       4.1705     -0.00000
     30       4.1705     -0.00000
     31       4.3913     -0.00000
     32       4.3914     -0.00000
     33       6.0596     -0.00000
     34       6.0596     -0.00000
     35       6.2755     -0.00000
     36       6.2755     -0.00000
     37       6.4151     -0.00000
     38       6.4151     -0.00000
     39       8.8914      0.00000
     40       8.8915      0.00000
     41      11.1466      0.00000
     42      11.1466      0.00000
     43      11.5922      0.00000
     44      11.5922      0.00000
     45      12.0716      0.00000
     46      12.0717      0.00000
     47      12.1914      0.00000
     48      12.1933      0.00000

[...]

 k-point   245 :      -0.1429   -0.1429   -0.2000
  band No.  band energies     occupation
      1     -20.9133      1.00000
      2     -20.9123      1.00000
      3     -20.9094      1.00000
      4     -20.9072      1.00000
      5     -17.9711      1.00000
      6     -17.9645      1.00000
      7     -17.9507      1.00000
      8     -17.9484      1.00000
      9     -17.9431      1.00000
     10     -17.9407      1.00000
     11      -8.8098      1.00000
     12      -8.8096      1.00000
     13      -7.5913      1.00000
     14      -7.5879      1.00000
     15      -3.2339      1.00000
     16      -3.1041      1.00000
     17      -0.6389      1.00000
     18      -0.6125      1.00000
     19      -0.1197      1.00000
     20       0.1804      1.00000
     21       0.5533      1.00000
     22       0.5858      1.00000
     23       1.5333      1.00000
     24       2.1431      1.00000
     25       2.5918      1.00011
     26       2.8091      1.01167
     27       4.1292     -0.00000
     28       4.3126     -0.00000
     29       5.1900     -0.00000
     30       5.4499     -0.00000
     31       5.6552     -0.00000
     32       5.7926     -0.00000
     33       6.0769     -0.00000
     34       6.1379     -0.00000
     35       7.0360     -0.00000
     36       7.3682     -0.00000
     37       7.4974     -0.00000
     38       7.5750     -0.00000
     39       8.4833     -0.00000
     40       8.5780     -0.00000
     41      10.1013      0.00000
     42      10.2987      0.00000
     43      10.5770      0.00000
     44      10.7428      0.00000
     45      10.7523      0.00000
     46      10.8125      0.00000
     47      11.3041      0.00000
     48      11.3223      0.00000

 soft charge-density along one line, spin component           1
         0         1         2         3         4         5         6         7         8         9
 total charge-density along one line

[...]

 soft charge-density along one line, spin component           4
         0         1         2         3         4         5         6         7         8         9
 total charge-density along one line

------------------------ aborting loop because EDIFF is reached ----------------------------------------

  FORCE on cell =-STRESS in cart. coord.  units (eV):
  Direction    XX          YY          ZZ          XY          YZ          ZX
  Alpha Z    64.20129    64.20129    64.20129
  Ewald    -439.74121  -439.74123  -560.43629     0.00000     0.00000    -0.00000
  Hartree   290.89600   290.89600   172.81503     0.00000    -0.00000    -0.00000
  E(xc)    -113.06812  -113.06812  -113.02768    -0.00000    -0.00000    -0.00000
  Local    -321.32552  -321.32548   -82.49760    -0.00000     0.00000    -0.00000
  n-local   155.67443   155.67443   155.87466    -0.00000     0.00001     0.00001
  augment   138.72639   138.72639   138.67533    -0.00000     0.00000     0.00000
  Kinetic   224.94834   224.94834   224.70192     0.00000    -0.00000    -0.00000
  Fock        0.00000     0.00000     0.00000     0.00000     0.00000     0.00000
  Total       0.31161     0.31161     0.30665    -0.00000     0.00001     0.00001
  in kB       4.39311     4.39309     4.32315    -0.00006     0.00008     0.00008

 VOLUME and BASIS-vectors are now :
  energy-cutoff  :      500.00
  volume of cell :      113.64
      direct lattice vectors                 reciprocal lattice vectors
     4.300140858  0.000000000  0.000000000     0.232550522  0.000000000  0.000000000
     0.000000000  4.300140858  0.000000000     0.000000000  0.232550522  0.000000000
     0.000000000  0.000000000  6.145861149     0.000000000  0.000000000  0.162711128

  length of vectors
     4.300140858  4.300140858  6.145861149     0.232550522  0.232550522  0.162711128

 FORCES acting on ions
    electron-ion (+dipol)            ewald-force                    non-local-force                 convergence-correction
   -.124E-06 0.836E-07 0.477E+02   0.261E-14 -.178E-15 -.473E+02   0.215E-06 -.214E-07 -.400E+00   -.255E-06 -.780E-07 0.197E-03
   0.249E-06 -.135E-07 -.477E+02   -.168E-14 -.547E-14 0.473E+02   -.102E-06 -.165E-06 0.400E+00   -.127E-06 0.384E-06 -.197E-03
   -.585E-05 0.640E-05 -.284E-05   -.341E-14 0.631E-14 0.425E-05   -.279E-04 0.294E-04 -.102E-05   0.402E-04 -.439E-04 -.828E-06
   -.406E-05 0.366E-05 -.266E-06   0.139E-14 0.780E-16 0.515E-06   0.193E-05 -.186E-05 0.151E-07   0.231E-05 -.198E-05 0.124E-06
   -.979E-05 0.101E-04 0.151E-05   -.109E-14 0.740E-15 -.355E-14   -.259E-04 0.273E-04 -.163E-05   0.421E-04 -.456E-04 -.719E-06

 POSITION                                       TOTAL-FORCE (eV/Angst)
      2.15007      0.00000      4.46027        -0.000002      0.000002     -0.068068
      0.00000      2.15007      1.68559        -0.000002      0.000002      0.068068
      0.00000      0.00000      0.00000         0.000005     -0.000006     -0.000000
      2.15007      2.15007      3.07293        -0.000001      0.000002      0.000001
    total drift:                                0.000006     -0.000008     -0.000001

  FREE ENERGIE OF THE ION-ELECTRON SYSTEM (eV)
  free  energy   TOTEN  =       -15.63388243 eV

  energy  without entropy=      -15.63143777  energy(sigma->0) =      -15.63306754

 writing wavefunctions

 Spin-Orbit-Coupling matrix elements

 Ion:    1  E_soc:     -0.0071258
 l=   1
     0.0000000    -0.0009897    -0.0012104
    -0.0009897     0.0000000    -0.0014149
    -0.0012104    -0.0014149     0.0000000
 l=   2
     0.0000000    -0.0000007     0.0000000     0.0000052     0.0000005
    -0.0000007     0.0000000    -0.0000059     0.0000168     0.0000067
     0.0000000    -0.0000059     0.0000000     0.0000148     0.0000000
     0.0000052     0.0000168     0.0000148     0.0000000     0.0000146
     0.0000005     0.0000067     0.0000000     0.0000146     0.0000000
 l=   3
     0.0000000     0.0000000     0.0000000     0.0000000     0.0000000     0.0000000     0.0000000
     0.0000000     0.0000000     0.0000000     0.0000000     0.0000000     0.0000000     0.0000000
     0.0000000     0.0000000     0.0000000     0.0000000     0.0000000     0.0000000     0.0000000
     0.0000000     0.0000000     0.0000000     0.0000000     0.0000000     0.0000000     0.0000000
     0.0000000     0.0000000     0.0000000     0.0000000     0.0000000     0.0000000     0.0000000
     0.0000000     0.0000000     0.0000000     0.0000000     0.0000000     0.0000000     0.0000000
     0.0000000     0.0000000     0.0000000     0.0000000     0.0000000     0.0000000     0.0000000

[...]

 Ion:    4  E_soc:     -0.0294881
 l=   1
     0.0000000    -0.0048827    -0.0049481
    -0.0048827     0.0000000    -0.0048827
    -0.0049481    -0.0048827     0.0000000
 l=   2
     0.0000000    -0.0000023     0.0000000    -0.0000023    -0.0000092
    -0.0000023     0.0000000    -0.0000075    -0.0000001    -0.0000009
     0.0000000    -0.0000075     0.0000000    -0.0000075     0.0000000
    -0.0000023    -0.0000001    -0.0000075     0.0000000    -0.0000009
    -0.0000092    -0.0000009     0.0000000    -0.0000009     0.0000000
 l=   3
     0.0000000     0.0000000     0.0000000     0.0000000     0.0000000     0.0000000     0.0000000
     0.0000000     0.0000000     0.0000000     0.0000000     0.0000000     0.0000000     0.0000000
     0.0000000     0.0000000     0.0000000     0.0000000     0.0000000     0.0000000     0.0000000
     0.0000000     0.0000000     0.0000000     0.0000000     0.0000000     0.0000000     0.0000000
     0.0000000     0.0000000     0.0000000     0.0000000     0.0000000     0.0000000     0.0000000
     0.0000000     0.0000000     0.0000000     0.0000000     0.0000000     0.0000000     0.0000000
     0.0000000     0.0000000     0.0000000     0.0000000     0.0000000     0.0000000     0.0000000