 vasp.5.4.4.18Apr17-6-g9f103f2a35 (build Dec 27 2023 19:01:38) complex

 executed on             LinuxIFC date 2024.08.25  12:23:00

 INCAR:
 POTCAR:    PAW_PBE Ga 08Apr2002
 POTCAR:    PAW_PBE Bi_d 06Sep2000
 POTCAR:    PAW_PBE As 22Sep2009
 POTCAR:    PAW_PBE Ga 08Apr2002
   VRHFIN =Ga: s2p1

   TITEL  = PAW_PBE Ga 08Apr2002
   POMASS =   69.723; ZVAL   =    3.000    mass and valenz
   ENMAX  =  134.678; ENMIN  =  101.009 eV

 POTCAR:    PAW_PBE Bi_d 06Sep2000
   VRHFIN =Bi:

   TITEL  = PAW_PBE Bi_d 06Sep2000
   POMASS =  208.980; ZVAL   =   15.000    mass and valenz
   ENMAX  =  242.839; ENMIN  =  182.129 eV

 POTCAR:    PAW_PBE As 22Sep2009
   VRHFIN =As: s2p3

   TITEL  = PAW_PBE As 22Sep2009
   POMASS =   74.922; ZVAL   =    5.000    mass and valenz
   ENMAX  =  208.702; ENMIN  =  156.526 eV

 Optimization of the real space projectors (new method)

 maximal supplied QI-value         = 14.36
 optimisation between [QCUT,QGAM] = [ 11.35, 22.84] = [ 36.05,146.02] Ry
 Optimized for a Real-space Cutoff    1.43 Angstroem

   l    n(q)    QCUT    max X(q) W(low)/X(q) W(high)/X(q)  e(spline)
   0     10    11.346    81.156    0.45E-04    0.70E-04    0.62E-07
   0     10    11.346    65.205    0.45E-04    0.72E-04    0.63E-07
   1      9    11.346    44.874    0.15E-03    0.63E-04    0.19E-06
   1      9    11.346    25.010    0.16E-03    0.59E-04    0.19E-06
   2      9    11.346     5.217    0.61E-04    0.14E-03    0.62E-07
 Optimization of the real space projectors (new method)

[...]

   l    n(q)    QCUT    max X(q) W(low)/X(q) W(high)/X(q)  e(spline)
   2      9    11.338     4.360    0.29E-04    0.91E-04    0.84E-07
   2      9    11.338     7.451    0.91E-04    0.83E-04    0.19E-06
   0      9    11.338    21.015    0.59E-04    0.59E-05    0.80E-07
   0      9    11.338     9.183    0.87E-04    0.88E-05    0.12E-06
   1      9    11.338    25.904    0.84E-04    0.19E-03    0.11E-06
   1      9    11.338    13.553    0.73E-04    0.17E-03    0.10E-06
 Optimization of the real space projectors (new method)

 maximal supplied QI-value         = 17.95
 optimisation between [QCUT,QGAM] = [ 11.31, 22.80] = [ 35.82,145.56] Ry
 Optimized for a Real-space Cutoff    1.31 Angstroem

   l    n(q)    QCUT    max X(q) W(low)/X(q) W(high)/X(q)  e(spline)
   0      9    11.310   117.213    0.44E-04    0.60E-04    0.75E-07
   0      9    11.310    98.411    0.42E-04    0.60E-04    0.74E-07
   1      8    11.310    10.093    0.11E-03    0.13E-03    0.10E-06
   1      8    11.310     5.228    0.97E-04    0.12E-03    0.93E-07
   2      8    11.310     4.067    0.36E-04    0.60E-04    0.60E-07
  PAW_PBE Ga 08Apr2002                  :
  PAW_PBE Bi_d 06Sep2000                :
  PAW_PBE As 22Sep2009                  :

 POSCAR: Ga2 Bi1 As1
  positions in direct lattice
 exchange correlation table for  LEXCH =        8
   RHO(1)=    0.500       N(1)  =     2000
   RHO(2)=  100.500       N(2)  =     4000

 ion  position               nearest neighbor table
   1  0.500  0.000  0.726-   4 2.56   4 2.56   3 2.73   3 2.73
   2  0.000  0.500  0.274-   4 2.56   4 2.56   3 2.73   3 2.73
   3  0.000  0.000  0.000-   1 2.73   1 2.73   2 2.73   2 2.73
   4  0.500  0.500  0.500-   2 2.56   2 2.56   1 2.56   1 2.56

  LATTYP: Found a simple tetragonal cell.
 ALAT       =     4.3001408577
 C/A-ratio  =     1.4292232167

  Lattice vectors:

 A1 = (   4.3001408577,   0.0000000000,   0.0000000000)
 A2 = (   0.0000000000,   4.3001408577,   0.0000000000)
 A3 = (   0.0000000000,   0.0000000000,   6.1458611488)

Analysis of symmetry for initial positions (statically):
 Subroutine PRICEL returns:
 Original cell was already a primitive cell.

 Routine SETGRP: Setting up the symmetry group for a
 simple tetragonal supercell.

 Subroutine GETGRP returns: Found  8 space group operations
 (whereof  8 operations were pure point group operations)
 out of a pool of 16 trial point group operations.

The static configuration has the point symmetry D_2d.

Analysis of symmetry for dynamics (positions and initial velocities):
 Subroutine PRICEL returns:
 Original cell was already a primitive cell.

 Routine SETGRP: Setting up the symmetry group for a
 simple tetragonal supercell.

 Subroutine GETGRP returns: Found  8 space group operations
 (whereof  8 operations were pure point group operations)
 out of a pool of 16 trial point group operations.

The dynamic configuration has the point symmetry D_2d.

 Subroutine INISYM returns: Found  8 space group operations
 (whereof  8 operations are pure point group operations),
 and found     1 'primitive' translations

 KPOINTS: MP

Automatic generation of k-mesh.
Space group operators:
 irot       det(A)        alpha          n_x          n_y          n_z        tau_x        tau_y        tau_z
    1     1.000000     0.000001     1.000000     0.000000     0.000000     0.000000     0.000000     0.000000
    2    -1.000000    90.000000     0.000000     0.000000    -1.000000     0.000000     0.000000     0.000000
    3     1.000000   180.000000     0.000000     0.000000     1.000000     0.000000     0.000000     0.000000
    4    -1.000000    90.000000     0.000000     0.000000     1.000000     0.000000     0.000000     0.000000
    5    -1.000000   180.000000     0.000000     1.000000     0.000000     0.000000     0.000000     0.000000
    6     1.000000   180.000000     0.707107     0.707107     0.000000     0.000000     0.000000     0.000000
    7    -1.000000   180.000000     1.000000     0.000000     0.000000     0.000000     0.000000     0.000000
    8     1.000000   180.000000     0.707107    -0.707107     0.000000     0.000000     0.000000     0.000000

 Subroutine IBZKPT returns following result:

 Found     12 irreducible k-points:

 Following reciprocal coordinates:
            Coordinates               Weight
  0.000000  0.000000  0.000000      1.000000
  0.200000  0.000000  0.000000      4.000000
  0.400000  0.000000  0.000000      4.000000
  0.200000  0.200000  0.000000      4.000000
  0.400000  0.200000  0.000000      8.000000
  0.400000  0.400000  0.000000      4.000000
  0.000000  0.000000  0.333333      2.000000
  0.200000  0.000000  0.333333      8.000000
  0.400000  0.000000  0.333333      8.000000
  0.200000  0.200000  0.333333      8.000000
  0.400000  0.200000  0.333333     16.000000
  0.400000  0.400000  0.333333      8.000000

 Following cartesian coordinates:
            Coordinates               Weight
  0.000000  0.000000  0.000000      1.000000
  0.046510  0.000000  0.000000      4.000000
  0.093020  0.000000  0.000000      4.000000
  0.046510  0.046510  0.000000      4.000000
  0.093020  0.046510  0.000000      8.000000
  0.093020  0.093020  0.000000      4.000000
  0.000000  0.000000  0.054237      2.000000
  0.046510  0.000000  0.054237      8.000000
  0.093020  0.000000  0.054237      8.000000
  0.046510  0.046510  0.054237      8.000000
  0.093020  0.046510  0.054237     16.000000
  0.093020  0.093020  0.054237      8.000000

 SYSTEM =  Ga2BiAs
 POSCAR =  Ga2 Bi1 As1

 Startparameter for this run:
   NWRITE =      2    write-flag & timer
   PREC   = accura    normal or accurate (medium, high low for compatibility)
   ISTART =      0    job   : 0-new  1-cont  2-samecut
   ICHARG =      2    charge: 1-file 2-atom 10-const
   ISPIN  =      1    spin polarized calculation?
   LNONCOLLINEAR =      F non collinear calculations
   LSORBIT =      F    spin-orbit coupling
   INIWAV =      1    electr: 0-lowe 1-rand  2-diag
   LASPH  =      F    aspherical Exc in radial PAW
   METAGGA=      F    non-selfconsistent MetaGGA calc.

 Electronic Relaxation 1
   ENCUT  =  500.0 eV  36.75 Ry    6.06 a.u.   7.84  7.84 11.21*2*pi/ulx,y,z
   ENINI  =  500.0     initial cutoff
   ENAUG  =  462.8 eV  augmentation charge cutoff
   NELM   =     60;   NELMIN=  2; NELMDL= -5     # of ELM steps
   EDIFF  = 0.1E-05   stopping-criterion for ELM
   LREAL  =      T    real-space projection
   NLSPLINE    = F    spline interpolate recip. space projectors
   LCOMPAT=      F    compatible to vasp.4.4
   GGA_COMPAT  = T    GGA compatible to vasp.4.4-vasp.4.6
   LMAXPAW     = -100 max onsite density
   LMAXMIX     =    2 max onsite mixed and CHGCAR
   VOSKOWN=      0    Vosko Wilk Nusair interpolation
   ROPT   =   -0.00025  -0.00025  -0.00025
 Ionic relaxation
   EDIFFG = -.1E-01   stopping-criterion for IOM
   NSW    =      0    number of steps for IOM
   NBLOCK =      1;   KBLOCK =      1    inner block; outer block
   IBRION =     -1    ionic relax: 0-MD 1-quasi-New 2-CG
   NFREE  =      0    steps in history (QN), initial steepest desc. (CG)
   ISIF   =      2    stress and relaxation
   IWAVPR =     10    prediction:  0-non 1-charg 2-wave 3-comb
   ISYM   =      2    0-nonsym 1-usesym 2-fastsym
   LCORR  =      T    Harris-Foulkes like correction to forces

   POTIM  = 0.5000    time-step for ionic-motion
   TEIN   =    0.0    initial temperature
   TEBEG  =    0.0;   TEEND  =   0.0 temperature during run
   SMASS  =  -3.00    Nose mass-parameter (am)
   estimated Nose-frequenzy (Omega)   =  0.10E-29 period in steps =****** mass=  -0.423E-27a.u.
   SCALEE = 1.0000    scale energy and forces
   NPACO  =    256;   APACO  = 16.0  distance and # of slots for P.C.
   PSTRESS=    0.0 pullay stress

  Mass of Ions in am
   POMASS =  69.72208.98 74.92
  Ionic Valenz
   ZVAL   =   3.00 15.00  5.00
  Atomic Wigner-Seitz radii
  virtual crystal weights
   VCA    =   1.00  1.00  1.00
   NELECT =      26.0000    total number of electrons
   NUPDOWN=      -1.0000    fix difference up-down

 DOS related values:
   EMIN   =  10.00;   EMAX   =-10.00  energy-range for DOS
   EFERMI =   0.00
   ISMEAR =     1;   SIGMA  =   0.20  broadening in eV -4-tet -1-fermi 0-gaus

 Electronic relaxation 2 (details)
   IALGO  =     38    algorithm
   LDIAG  =      T    sub-space diagonalisation (order eigenvalues)
   LSUBROT=      F    optimize rotation matrix (better conditioning)
   TURBO    =      0    0=normal 1=particle mesh
   IRESTART =      0    0=no restart 2=restart with 2 vectors
   NREBOOT  =      0    no. of reboots
   NMIN     =      0    reboot dimension
   EREF     =   0.00    reference energy to select bands
   IMIX   =      4    mixing-type and parameters
     AMIX     =   0.40;   BMIX     =  1.00
     AMIX_MAG =   1.60;   BMIX_MAG =  1.00
     AMIN     =   0.10
     WC   =   100.;   INIMIX=   1;  MIXPRE=   1;  MAXMIX= -45

 Intra band minimization:
   WEIMIN = 0.0000     energy-eigenvalue tresh-hold
   EBREAK =  0.12E-07  absolut break condition
   DEPER  =   0.30     relativ break condition

   TIME   =   0.40     timestep for ELM

  volume/ion in A,a.u.               =      28.41       191.73
  Fermi-wavevector in a.u.,A,eV,Ry     =   1.001267  1.892120 13.640326  1.002536
  Thomas-Fermi vector in A             =   2.133678

 Write flags
   LWAVE        =      F    write WAVECAR
   LDOWNSAMPLE  =      F    k-point downsampling of WAVECAR
   LCHARG       =      F    write CHGCAR
   LVTOT        =      F    write LOCPOT, total local potential
   LVHAR        =      F    write LOCPOT, Hartree potential only
   LELF         =      F    write electronic localiz. function (ELF)
   LORBIT       =      0    0 simple, 1 ext, 2 COOP (PROOUT), +10 PAW based schemes

 Dipole corrections
   LMONO  =      F    monopole corrections only (constant potential shift)
   LDIPOL =      F    correct potential (dipole corrections)
   IDIPOL =      0    1-x, 2-y, 3-z, 4-all directions
   EPSILON=  1.0000000 bulk dielectric constant

 Exchange correlation treatment:
   GGA     =    --    GGA type
   VOSKOWN=      0    Vosko Wilk Nusair interpolation
   LHFCALC =     F    Hartree Fock is set to
   LHFONE  =     F    Hartree Fock one center treatment
   AEXX    =    0.0000 exact exchange contribution

 Linear response parameters
   LEPSILON=     F    determine dielectric tensor
   LRPA    =     F    only Hartree local field effects (RPA)
   LNABLA  =     F    use nabla operator in PAW spheres
   LVEL    =     F    velocity operator in full k-point grid
   LINTERFAST=   F  fast interpolation
   KINTER  =     0    interpolate to denser k-point grid
   CSHIFT  =0.1000    complex shift for real part using Kramers Kronig
   OMEGAMAX=  -1.0    maximum frequency
   DEG_THRESHOLD= 0.2000000E-02 threshold for treating states as degnerate
   RTIME   =   -0.100 relaxation time in fs
  (WPLASMAI=    0.000 imaginary part of plasma frequency in eV, 0.658/RTIME)
   DFIELD  = 0.0000000 0.0000000 0.0000000 field for delta impulse in time

 Orbital magnetization related:
   ORBITALMAG=     F  switch on orbital magnetization
   LCHIMAG   =     F  perturbation theory with respect to B field
   DQ        =  0.001000  dq finite difference perturbation B field
   LLRAUG    =     F  two centre corrections for induced B field

 Static calculation
 charge density and potential will be updated during run
 non-spin polarized calculation
 Variant of blocked Davidson
 Davidson routine will perform the subspace rotation
 perform sub-space diagonalisation
    after iterative eigenvector-optimisation
 modified Broyden-mixing scheme, WC =      100.0
 initial mixing is a Kerker type mixing with AMIX =  0.4000 and BMIX =      1.0000
 Hartree-type preconditioning will be used
 using additional bands            7
 real space projection scheme for non local part
 use partial core corrections
 calculate Harris-corrections to forces
   (improved forces if not selfconsistent)
 use gradient corrections
 use of overlap-Matrix (Vanderbilt PP)
 Methfessel and Paxton  Order N= 1 SIGMA  =   0.20

  energy-cutoff  :      500.00
  volume of cell :      113.64
      direct lattice vectors                 reciprocal lattice vectors
     4.300140858  0.000000000  0.000000000     0.232550522  0.000000000  0.000000000
     0.000000000  4.300140858  0.000000000     0.000000000  0.232550522  0.000000000
     0.000000000  0.000000000  6.145861149     0.000000000  0.000000000  0.162711128

  length of vectors
     4.300140858  4.300140858  6.145861149     0.232550522  0.232550522  0.162711128

 k-points in units of 2pi/SCALE and weight: MP
   0.00000000  0.00000000  0.00000000       0.013
   0.04651010  0.00000000  0.00000000       0.053
   0.09302021  0.00000000  0.00000000       0.053
   0.04651010  0.04651010  0.00000000       0.053
   0.09302021  0.04651010  0.00000000       0.107
   0.09302021  0.09302021  0.00000000       0.053
   0.00000000  0.00000000  0.05423704       0.027
   0.04651010  0.00000000  0.05423704       0.107
   0.09302021  0.00000000  0.05423704       0.107
   0.04651010  0.04651010  0.05423704       0.107
   0.09302021  0.04651010  0.05423704       0.213
   0.09302021  0.09302021  0.05423704       0.107

 k-points in reciprocal lattice and weights: MP
   0.00000000  0.00000000  0.00000000       0.013
   0.20000000  0.00000000  0.00000000       0.053
   0.40000000  0.00000000  0.00000000       0.053
   0.20000000  0.20000000  0.00000000       0.053
   0.40000000  0.20000000  0.00000000       0.107
   0.40000000  0.40000000  0.00000000       0.053
   0.00000000  0.00000000  0.33333333       0.027
   0.20000000  0.00000000  0.33333333       0.107
   0.40000000  0.00000000  0.33333333       0.107
   0.20000000  0.20000000  0.33333333       0.107
   0.40000000  0.20000000  0.33333333       0.213
   0.40000000  0.40000000  0.33333333       0.107

 position of ions in fractional coordinates (direct lattice)
   0.50000000  0.00000000  0.72573602
   0.00000000  0.50000000  0.27426400
   0.00000000  0.00000000  0.00000000
   0.50000000  0.50000000  0.50000000

 position of ions in cartesian coordinates  (Angst):
   2.15007043  0.00000000  4.46027279
   0.00000000  2.15007043  1.68558848
   0.00000000  0.00000000  0.00000000
   2.15007043  2.15007043  3.07293057

 k-point  1 :   0.0000 0.0000 0.0000  plane waves:    2879
 k-point  2 :   0.2000 0.0000 0.0000  plane waves:    2890
 k-point  3 :   0.4000 0.0000 0.0000  plane waves:    2880
 k-point  4 :   0.2000 0.2000 0.0000  plane waves:    2877
 k-point  5 :   0.4000 0.2000 0.0000  plane waves:    2889
 k-point  6 :   0.4000 0.4000 0.0000  plane waves:    2877
 k-point  7 :   0.0000 0.0000 0.3333  plane waves:    2874
 k-point  8 :   0.2000 0.0000 0.3333  plane waves:    2882
 k-point  9 :   0.4000 0.0000 0.3333  plane waves:    2882
 k-point 10 :   0.2000 0.2000 0.3333  plane waves:    2872
 k-point 11 :   0.4000 0.2000 0.3333  plane waves:    2894
 k-point 12 :   0.4000 0.4000 0.3333  plane waves:    2890

 maximum and minimum number of plane-waves per node :       379      345

 maximum number of plane-waves:      2894
 maximum index in each direction:
   IXMAX=    7   IYMAX=    7   IZMAX=   11
   IXMIN=   -8   IYMIN=   -8   IZMIN=  -11

 real space projection operators:
  max/ min on nodes  :        275.24        258.95

 parallel 3D FFT for wavefunctions:
    minimum data exchange during FFTs selected (reduces bandwidth)
 parallel 3D FFT for charge:
    minimum data exchange during FFTs selected (reduces bandwidth)

 Broyden mixing: mesh for mixing (old mesh)
   NGX = 15   NGY = 15   NGZ = 23
  (NGX  = 64   NGY  = 64   NGZ  = 96)
  gives a total of   5175 points

 initial charge density was supplied:
 charge density of overlapping atoms calculated
 number of electron      26.0000000 magnetization
 keeping initial charge density in first step

 Maximum index for non-local projection operator          678
 Maximum index for augmentation-charges         1186 (set IRDMAX)

 First call to EWALD:  gamma=   0.366
 Maximum number of real-space cells 3x 3x 2
 Maximum number of reciprocal cells 2x 2x 3

--------------------------------------- Iteration      1(   1)  ---------------------------------------

 eigenvalue-minimisations  :   480
 total energy-change (2. order) : 0.1782816E+03  (-0.1135875E+04)
 number of electron      26.0000000 magnetization
 augmentation part       26.0000000 magnetization

 Free energy of the ion-electron system (eV)
  alpha Z        PSCENC =        64.20128509
  Ewald energy   TEWEN  =     -1439.91766544
  -Hartree energ DENC   =      -749.41397116
  -exchange      EXHF   =         0.00000000
  -V(xc)+E(xc)   XCENC  =        -1.78998093
  PAW double counting   =      1946.54768465    -1848.13466329
  entropy T*S    EENTRO =        -0.01069289
  eigenvalues    EBANDS =       -40.32365064
  atomic energy  EATOM  =      2247.12322143
  Solvation  Ediel_sol  =         0.00000000
  free energy    TOTEN  =       178.28156682 eV

  energy without entropy =      178.29225971  energy(sigma->0) =      178.28513111

[...]

 eigenvalue-minimisations  :   508
 total energy-change (2. order) :-0.1783491E+03  (-0.1717366E+03)
 number of electron      26.0000000 magnetization
 augmentation part       26.0000000 magnetization

[...]

 Broyden mixing:
  rms(total) = 0.41624E+00    rms(broyden)= 0.41624E+00
  rms(prec ) = 0.60578E+00
  weight for this iteration     100.00

[...]

 eigenvalues of (default mixing * dielectric matrix)
  average eigenvalue GAMMA=   2.2882
  2.2882

[...]

 eigenvalue-minimisations  :   548
 total energy-change (2. order) : 0.1829366E-03  (-0.1541001E-02)
 number of electron      26.0000008 magnetization
 augmentation part        4.0034565 magnetization

[...]

 Broyden mixing:
  rms(total) = 0.11027E-02    rms(broyden)= 0.11027E-02
  rms(prec ) = 0.17124E-02
  weight for this iteration     100.00

 eigenvalues of (default mixing * dielectric matrix)
  average eigenvalue GAMMA=   1.6807
  2.8630  2.3178  1.4589  1.4589  0.9021  1.0832

[...]

--------------------------------------- Iteration      1(  12)  ---------------------------------------

 eigenvalue-minimisations  :   600
 total energy-change (2. order) :-0.9041119E-06  (-0.7350414E-06)
 number of electron      26.0000008 magnetization
 augmentation part        4.0039132 magnetization

 Free energy of the ion-electron system (eV)
  alpha Z        PSCENC =        64.20128509
  Ewald energy   TEWEN  =     -1439.91766544
  -Hartree energ DENC   =      -753.94713447
  -exchange      EXHF   =         0.00000000
  -V(xc)+E(xc)   XCENC  =        -0.91080740
  PAW double counting   =      2421.89058668    -2326.54456646
  entropy T*S    EENTRO =        -0.00242943
  eigenvalues    EBANDS =      -226.70270460
  atomic energy  EATOM  =      2247.12322143
  Solvation  Ediel_sol  =         0.00000000
  free energy    TOTEN  =       -14.81021461 eV

  energy without entropy =      -14.80778518  energy(sigma->0) =      -14.80940480

 average (electrostatic) potential at core
  the test charge radii are     1.2767  1.0856  1.0621
  (the norm of the test charge is              1.0000)
       1 -14.6572       2 -14.6572       3-107.4073       4 -51.6426

 E-fermi :   3.1671     XC(G=0):  -8.7515     alpha+bet : -8.3023

 k-point     1 :       0.0000    0.0000    0.0000
  band No.  band energies     occupation
      1     -19.2770      2.00000
      2     -19.2687      2.00000
      3     -19.2687      2.00000
      4     -19.2515      2.00000
      5     -19.2295      2.00000
      6      -9.1676      2.00000
      7      -7.4275      2.00000
      8      -3.5276      2.00000
      9       0.4666      2.00000
     10       0.4666      2.00000
     11       1.8478      2.00000
     12       2.9307      2.07031
     13       3.1839      0.85838
     14       3.1839      0.85838
     15       4.1271     -0.00000
     16       4.3928     -0.00000
     17       6.1908     -0.00000
     18       6.1908     -0.00000
     19       6.3582     -0.00000
     20       8.8990      0.00000

[...]

 k-point    12 :       0.4000    0.4000    0.3333
  band No.  band energies     occupation
      1     -19.2785      2.00000
      2     -19.2783      2.00000
      3     -19.2443      2.00000
      4     -19.2440      2.00000
      5     -19.2384      2.00000
      6      -7.6256      2.00000
      7      -7.3922      2.00000
      8      -3.3669      2.00000
      9      -3.1733      2.00000
     10      -0.4218      2.00000
     11       0.0170      2.00000
     12       0.6245      2.00000
     13       0.8777      2.00000
     14       4.8100     -0.00000
     15       5.7120     -0.00000
     16       5.9839     -0.00000
     17       7.1880     -0.00000
     18       7.9132     -0.00000
     19       9.0257      0.00000
     20       9.2868      0.00000

 soft charge-density along one line, spin component           1
         0         1         2         3         4         5         6         7         8         9
 total charge-density along one line

------------------------ aborting loop because EDIFF is reached ----------------------------------------

  FORCE on cell =-STRESS in cart. coord.  units (eV):
  Direction    XX          YY          ZZ          XY          YZ          ZX
  Alpha Z    64.20129    64.20129    64.20129
  Ewald    -439.74121  -439.74123  -560.43629     0.00000     0.00000    -0.00000
  Hartree   290.68298   290.68298   172.58144    -0.00000    -0.00000    -0.00000
  E(xc)    -113.04471  -113.04471  -112.98239    -0.00000     0.00000    -0.00000
  Local    -320.13160  -320.13158   -80.88599    -0.00000     0.00000     0.00000
  n-local   152.72646   157.77587   155.17720    -0.02610     0.33155    -0.85745
  augment   139.17301   139.17301   139.23511     0.00000     0.00000    -0.00000
  Kinetic   219.13514   228.57844   222.95311    -1.06246     1.67493    -0.62176
  Fock        0.00000     0.00000     0.00000     0.00000     0.00000     0.00000
  Total       0.24771     0.24771    -0.15654     0.00000     0.00000     0.00000
  in kB       3.49228     3.49228    -2.20689     0.00000     0.00000     0.00000

 VOLUME and BASIS-vectors are now :
  energy-cutoff  :      500.00
  volume of cell :      113.64
      direct lattice vectors                 reciprocal lattice vectors
     4.300140858  0.000000000  0.000000000     0.232550522  0.000000000  0.000000000
     0.000000000  4.300140858  0.000000000     0.000000000  0.232550522  0.000000000
     0.000000000  0.000000000  6.145861149     0.000000000  0.000000000  0.162711128

  length of vectors
     4.300140858  4.300140858  6.145861149     0.232550522  0.232550522  0.162711128

 FORCES acting on ions
    electron-ion (+dipol)            ewald-force                    non-local-force                 convergence-correction
   -.984E-14 -.826E-14 0.478E+02   0.261E-14 -.178E-15 -.473E+02   0.000E+00 -.130E-17 -.430E+00   0.212E-14 -.613E-15 0.522E-03
   -.798E-14 0.223E-13 -.478E+02   -.168E-14 -.547E-14 0.473E+02   0.867E-18 -.434E-18 0.430E+00   -.175E-14 0.131E-14 -.522E-03
   -.240E-13 -.120E-13 0.722E-06   -.341E-14 0.631E-14 0.425E-05   -.139E-16 0.000E+00 0.000E+00   -.512E-13 -.954E-14 -.864E-07
   0.108E-13 0.372E-12 0.919E-07   0.139E-14 0.780E-16 0.515E-06   0.000E+00 0.000E+00 0.000E+00   0.379E-14 -.233E-14 0.234E-07
   -.311E-13 0.374E-12 0.348E-06   -.109E-14 0.740E-15 -.355E-14   -.130E-16 -.173E-17 -.555E-16   -.471E-13 -.112E-13 -.579E-07

 POSITION                                       TOTAL-FORCE (eV/Angst)
      2.15007      0.00000      4.46027        -0.000000     -0.000000      0.004925
      0.00000      2.15007      1.68559        -0.000000     -0.000000     -0.004925
      0.00000      0.00000      0.00000         0.000000     -0.000000      0.000000
      2.15007      2.15007      3.07293        -0.000000      0.000000      0.000000
    total drift:                               -0.000000      0.000000      0.000000

  FREE ENERGIE OF THE ION-ELECTRON SYSTEM (eV)
  free  energy   TOTEN  =       -14.81021461 eV

  energy  without entropy=      -14.80778518  energy(sigma->0) =      -14.80940480